Generated by VASPKIT code               
   1.00000000000000     
    11.8284997940000007    0.0000000000000000    0.0000000000000000
     0.0000000000000000   11.8284997940000007    0.0000000000000000
     0.0000000000000000    0.0000000000000000   29.8570995331000013
   Ru
   108
Direct
  0.0347046322380677  0.0000012575920394  0.3478325546864838
  0.0346282292669784  0.3333276688283178  0.3478366522330276
  0.0346283604950770  0.6666702555325870  0.3478363607513728
  0.3680917244927358  0.9999992356664436  0.3478078187504394
  0.3679363516235767  0.3333042217370803  0.3478279736956011
  0.3679386795992272  0.6666960890701432  0.3478284942231795
  0.7012046779464782  0.0000002968143420  0.3478346314663199
  0.7014281581025301  0.3333121416184781  0.3478157077701596
  0.7014275493418651  0.6666869773368234  0.3478159694263354
  0.0346982108712766  0.0000001726064838  0.4717446293722816
  0.0347410602938538  0.3333433987978793  0.4717737140293821
  0.0347408081061076  0.6666566885394332  0.4717735906769818
  0.3680317215293485  0.9999997155387419  0.4717394217372401
  0.3680514661542489  0.3333351899023924  0.4717715617747515
  0.3680511655898755  0.6666648882852684  0.4717717040676845
  0.7013438643485514  0.9999998689210514  0.4717649965803616
  0.7013884199880991  0.3333267759137968  0.4717620916328684
  0.7013876636416327  0.6666732487006115  0.4717623140279414
  0.0346443913700583  0.0000002540716437  0.5969803208684965
  0.0346543469787974  0.3333548715061454  0.5970242374673873
  0.0346545330058632  0.6666455260254480  0.5970241970108674
  0.3679594073738883  0.9999999968334023  0.5970290752254925
  0.3679792143238743  0.3333213792693002  0.5969875422823776
  0.3679791490681197  0.6666791055951364  0.5969874379129010
  0.7013267403207024  0.0000002744915051  0.5970295038655351
  0.7013202988143306  0.3333179090246148  0.5969900581424810
  0.7013212864484615  0.6666828749237652  0.5969901588252071
  0.2014306413249116  0.1666880139212736  0.3478162735639145
  0.2012040458835784  0.5000001547440220  0.3478352937906095
  0.2014286535474170  0.8333114257019361  0.3478169696707241
  0.5346297617367810  0.1666671947135754  0.3478335002856099
  0.5346809369513323  0.4999992091368810  0.3478265007998971
  0.5346296146310721  0.8333295736274025  0.3478344169129457
  0.8679483332286537  0.1666991378164653  0.3478305088818630
  0.8680888133771063  0.4999994939375583  0.3478081582995571
  0.8679370139023703  0.8333012767318522  0.3478295015140773
  0.2013873298560966  0.1666733286082334  0.4717628826084166
  0.2013438561340379  0.5000000723682376  0.4717659043316118
  0.2013890107033447  0.8333264471493749  0.4717628594159606
  0.5347417021524876  0.1666571847573977  0.4717728068630933
  0.5347003251245397  0.5000008186965914  0.4717438065403101
  0.5347421615241501  0.8333435092170376  0.4717730930743897
  0.8680515915340834  0.1666709675345146  0.4717730525339903
  0.8680279661320824  0.5000001354759647  0.4717389420708429
  0.8680528402642622  0.8333288101042058  0.4717728771728531
  0.2013217824106874  0.1666812838745457  0.5969903858529761
  0.2013286355973491  0.5000003003044498  0.5970301292905518
  0.2013218540259984  0.8333191115202609  0.5969903239973320
  0.5346552539133782  0.1666437969594767  0.5970235418809295
  0.5346432495740459  0.5000004667086770  0.5969797386813838
  0.5346552612784308  0.8333563830185824  0.5970235486150344
  0.8679789841203203  0.1666790523609194  0.5969877975913676
  0.8679586926781511  0.5000005303555284  0.5970289268571136
  0.8679791467501019  0.8333210614119295  0.5969879275183274
  0.0346634699698001  0.1666413686046226  0.4029858976594767
  0.0346408968108989  0.4999998841542705  0.4030192671369477
  0.0346517371168318  0.8333617827609743  0.4029798121697112
  0.3679833366924115  0.1666777299057571  0.4030133480938716
  0.3679528229678297  0.4999994904868430  0.4029737182943194
  0.3679828335173667  0.8333224052201231  0.4030135114568978
  0.7013205687278088  0.1666810694466037  0.4030127429150454
  0.7013302125768988  0.4999994679230966  0.4029821988303794
  0.7013198347462790  0.8333190640645967  0.4030126120777666
  0.0347365787514065  0.1666627530708027  0.5282326713934182
  0.0346873270280739  0.5000003208098605  0.5282606728505925
  0.0347372071523040  0.8333370550825734  0.5282326204636547
  0.3680557219131160  0.1666695777165330  0.5282299043903578
  0.3680308988598071  0.4999999417461325  0.5282633058148036
  0.3680549367030039  0.8333305335861709  0.5282297787337740
  0.7013882710978336  0.1666724117291594  0.5282397046171852
  0.7013442406152564  0.4999996561588702  0.5282360147234400
  0.7013882715956399  0.8333274584988146  0.5282398258937633
  0.0346302022533180  0.1666652174722572  0.6521683251999661
  0.0346947924837195  0.5000002003249406  0.6521749731776865
  0.0346302461944674  0.8333351798601640  0.6521684477558765
  0.3679473925134431  0.1666967022397898  0.6521749181905605
  0.3680915011455852  0.5000004060441015  0.6521944698861759
  0.3679474002071075  0.8333034036726872  0.6521750456579056
  0.7014264841629583  0.1666892464880192  0.6521869707945456
  0.7012065319185297  0.4999999849626349  0.6521677267096777
  0.7014266399134499  0.8333120764796149  0.6521872957485968
  0.2013415127689342  0.9999993579866455  0.4029786730078655
  0.2013208610924693  0.3333210072620147  0.4030129551466928
  0.2013207994463002  0.6666792235511494  0.4030130756011019
  0.5346428928073266  0.9999994651476953  0.4030194476851108
  0.5346531191609998  0.3333517430614634  0.4029789559187051
  0.5346549658919102  0.6666441374881700  0.4029798585305997
  0.8679713136379306  0.0000002743009091  0.4029719565439223
  0.8679796346764732  0.3333222656083450  0.4030136436304090
  0.8679796646095355  0.6666771249979035  0.4030136178904797
  0.2013461316881688  0.9999999082673980  0.5282361988763782
  0.2013900548399974  0.3333273035288613  0.5282396076184668
  0.2013896556312105  0.6666727361992741  0.5282396763970993
  0.5346881695143963  0.9999999738223977  0.5282607285499594
  0.5347389787540493  0.3333376665392223  0.5282321209803555
  0.5347383533561398  0.6666621582249945  0.5282322325602493
  0.8680285674882882  0.9999998780288379  0.5282634225042955
  0.8680526662208621  0.3333303887388084  0.5282295036118754
  0.8680525508602699  0.6666698879608717  0.5282295439890135
  0.2012084565635703  0.0000001143650223  0.6521677359564677
  0.2014282180487896  0.3333107093361676  0.6521861282284078
  0.2014281672119864  0.6666898768889311  0.6521862631412105
  0.5346960946015571  0.0000001226622288  0.6521768699974331
  0.5346307429972370  0.3333337330195150  0.6521691280941369
  0.5346311282483640  0.6666668839789054  0.6521691597083219
  0.8680888664298010  0.0000002819600624  0.6521944299930311
  0.8679436985267159  0.3333039834792757  0.6521739092164793
  0.8679454016011121  0.6666963811851687  0.6521743028668183
 
  0.00000000E+00  0.00000000E+00  0.00000000E+00
  0.00000000E+00  0.00000000E+00  0.00000000E+00
  0.00000000E+00  0.00000000E+00  0.00000000E+00
  0.00000000E+00  0.00000000E+00  0.00000000E+00
  0.00000000E+00  0.00000000E+00  0.00000000E+00
  0.00000000E+00  0.00000000E+00  0.00000000E+00
  0.00000000E+00  0.00000000E+00  0.00000000E+00
  0.00000000E+00  0.00000000E+00  0.00000000E+00
  0.00000000E+00  0.00000000E+00  0.00000000E+00
  0.00000000E+00  0.00000000E+00  0.00000000E+00
  0.00000000E+00  0.00000000E+00  0.00000000E+00
  0.00000000E+00  0.00000000E+00  0.00000000E+00
  0.00000000E+00  0.00000000E+00  0.00000000E+00
  0.00000000E+00  0.00000000E+00  0.00000000E+00
  0.00000000E+00  0.00000000E+00  0.00000000E+00
  0.00000000E+00  0.00000000E+00  0.00000000E+00
  0.00000000E+00  0.00000000E+00  0.00000000E+00
  0.00000000E+00  0.00000000E+00  0.00000000E+00
  0.00000000E+00  0.00000000E+00  0.00000000E+00
  0.00000000E+00  0.00000000E+00  0.00000000E+00
  0.00000000E+00  0.00000000E+00  0.00000000E+00
  0.00000000E+00  0.00000000E+00  0.00000000E+00
  0.00000000E+00  0.00000000E+00  0.00000000E+00
  0.00000000E+00  0.00000000E+00  0.00000000E+00
  0.00000000E+00  0.00000000E+00  0.00000000E+00
  0.00000000E+00  0.00000000E+00  0.00000000E+00
  0.00000000E+00  0.00000000E+00  0.00000000E+00
  0.00000000E+00  0.00000000E+00  0.00000000E+00
  0.00000000E+00  0.00000000E+00  0.00000000E+00
  0.00000000E+00  0.00000000E+00  0.00000000E+00
  0.00000000E+00  0.00000000E+00  0.00000000E+00
  0.00000000E+00  0.00000000E+00  0.00000000E+00
  0.00000000E+00  0.00000000E+00  0.00000000E+00
  0.00000000E+00  0.00000000E+00  0.00000000E+00
  0.00000000E+00  0.00000000E+00  0.00000000E+00
  0.00000000E+00  0.00000000E+00  0.00000000E+00
  0.00000000E+00  0.00000000E+00  0.00000000E+00
  0.00000000E+00  0.00000000E+00  0.00000000E+00
  0.00000000E+00  0.00000000E+00  0.00000000E+00
  0.00000000E+00  0.00000000E+00  0.00000000E+00
  0.00000000E+00  0.00000000E+00  0.00000000E+00
  0.00000000E+00  0.00000000E+00  0.00000000E+00
  0.00000000E+00  0.00000000E+00  0.00000000E+00
  0.00000000E+00  0.00000000E+00  0.00000000E+00
  0.00000000E+00  0.00000000E+00  0.00000000E+00
  0.00000000E+00  0.00000000E+00  0.00000000E+00
  0.00000000E+00  0.00000000E+00  0.00000000E+00
  0.00000000E+00  0.00000000E+00  0.00000000E+00
  0.00000000E+00  0.00000000E+00  0.00000000E+00
  0.00000000E+00  0.00000000E+00  0.00000000E+00
  0.00000000E+00  0.00000000E+00  0.00000000E+00
  0.00000000E+00  0.00000000E+00  0.00000000E+00
  0.00000000E+00  0.00000000E+00  0.00000000E+00
  0.00000000E+00  0.00000000E+00  0.00000000E+00
  0.00000000E+00  0.00000000E+00  0.00000000E+00
  0.00000000E+00  0.00000000E+00  0.00000000E+00
  0.00000000E+00  0.00000000E+00  0.00000000E+00
  0.00000000E+00  0.00000000E+00  0.00000000E+00
  0.00000000E+00  0.00000000E+00  0.00000000E+00
  0.00000000E+00  0.00000000E+00  0.00000000E+00
  0.00000000E+00  0.00000000E+00  0.00000000E+00
  0.00000000E+00  0.00000000E+00  0.00000000E+00
  0.00000000E+00  0.00000000E+00  0.00000000E+00
  0.00000000E+00  0.00000000E+00  0.00000000E+00
  0.00000000E+00  0.00000000E+00  0.00000000E+00
  0.00000000E+00  0.00000000E+00  0.00000000E+00
  0.00000000E+00  0.00000000E+00  0.00000000E+00
  0.00000000E+00  0.00000000E+00  0.00000000E+00
  0.00000000E+00  0.00000000E+00  0.00000000E+00
  0.00000000E+00  0.00000000E+00  0.00000000E+00
  0.00000000E+00  0.00000000E+00  0.00000000E+00
  0.00000000E+00  0.00000000E+00  0.00000000E+00
  0.00000000E+00  0.00000000E+00  0.00000000E+00
  0.00000000E+00  0.00000000E+00  0.00000000E+00
  0.00000000E+00  0.00000000E+00  0.00000000E+00
  0.00000000E+00  0.00000000E+00  0.00000000E+00
  0.00000000E+00  0.00000000E+00  0.00000000E+00
  0.00000000E+00  0.00000000E+00  0.00000000E+00
  0.00000000E+00  0.00000000E+00  0.00000000E+00
  0.00000000E+00  0.00000000E+00  0.00000000E+00
  0.00000000E+00  0.00000000E+00  0.00000000E+00
  0.00000000E+00  0.00000000E+00  0.00000000E+00
  0.00000000E+00  0.00000000E+00  0.00000000E+00
  0.00000000E+00  0.00000000E+00  0.00000000E+00
  0.00000000E+00  0.00000000E+00  0.00000000E+00
  0.00000000E+00  0.00000000E+00  0.00000000E+00
  0.00000000E+00  0.00000000E+00  0.00000000E+00
  0.00000000E+00  0.00000000E+00  0.00000000E+00
  0.00000000E+00  0.00000000E+00  0.00000000E+00
  0.00000000E+00  0.00000000E+00  0.00000000E+00
  0.00000000E+00  0.00000000E+00  0.00000000E+00
  0.00000000E+00  0.00000000E+00  0.00000000E+00
  0.00000000E+00  0.00000000E+00  0.00000000E+00
  0.00000000E+00  0.00000000E+00  0.00000000E+00
  0.00000000E+00  0.00000000E+00  0.00000000E+00
  0.00000000E+00  0.00000000E+00  0.00000000E+00
  0.00000000E+00  0.00000000E+00  0.00000000E+00
  0.00000000E+00  0.00000000E+00  0.00000000E+00
  0.00000000E+00  0.00000000E+00  0.00000000E+00
  0.00000000E+00  0.00000000E+00  0.00000000E+00
  0.00000000E+00  0.00000000E+00  0.00000000E+00
  0.00000000E+00  0.00000000E+00  0.00000000E+00
  0.00000000E+00  0.00000000E+00  0.00000000E+00
  0.00000000E+00  0.00000000E+00  0.00000000E+00
  0.00000000E+00  0.00000000E+00  0.00000000E+00
  0.00000000E+00  0.00000000E+00  0.00000000E+00
  0.00000000E+00  0.00000000E+00  0.00000000E+00
  0.00000000E+00  0.00000000E+00  0.00000000E+00
