H2 Rh108 O2                             
   1.00000000000000     
    11.8285000000000000    0.0000000000000000    0.0000000000000000
     0.0000000000000000   11.8285000000000000    0.0000000000000000
     0.0000000000000000    0.0000000000000000   29.8570999999999991
   H    Rh   O 
     2   108     2
Direct
  0.7316117198351129  0.3640415882435005  0.7206656508903301
  0.1705637339546801  0.6353698412436518  0.2789318280363272
  0.0350263075972415  0.0006764387465753  0.3469810887303137
  0.0337696430325340  0.3311320696639444  0.3469497015952638
  0.0321390678257664  0.6704290553968462  0.3441500660290047
  0.3678248145244092  0.0000682946402523  0.3468881059011789
  0.3685437544958278  0.3335853783851242  0.3466679751410109
  0.3703557231628568  0.6673018782772990  0.3471695186668673
  0.7017686062817243 -0.0003605208506044  0.3466264944452282
  0.7012600488836059  0.3335148303638668  0.3469040814350725
  0.7009234268160346  0.6658881733880857  0.3469700842003962
  0.0345087729102531  0.0005299415766356  0.4686266261804087
  0.0349639986109280  0.3334473422649796  0.4682924808226249
  0.0348896942271037  0.6666348250039575  0.4682765574125065
  0.3681604263897017  0.0002926278920935  0.4684653725326727
  0.3681238656852591  0.3335449833273337  0.4685683551600845
  0.3678219177495606  0.6662620841880997  0.4682044492582080
  0.7010148800389516  0.0000185611646232  0.4686024965869703
  0.7014230299451207  0.3334048568520657  0.4686742039718492
  0.7011739101470251  0.6665749432152801  0.4687041075251274
  0.0347704632192237  0.0002180328929231  0.5940549458529188
  0.0332589217572940  0.3334522640741862  0.5945953574328475
  0.0352201997701798  0.6672695127979693  0.5938744536792360
  0.3674130175360529 -0.0003120622275221  0.5943097630381206
  0.3675524915094290  0.3332891465663688  0.5936367749002657
  0.3684831592923413  0.6666346998743100  0.5937838748925753
  0.7010069683395224 -0.0003509029828196  0.5936487274413803
  0.7007339683355130  0.3331505908191345  0.5944271323700735
  0.7013961112013369  0.6650892242156921  0.5947288385948304
  0.2012165692468018  0.1657825014418764  0.3469633983914587
  0.2054528082542658  0.4974195475334880  0.3440672295386346
  0.2026378269465099  0.8354645584705978  0.3471533031357992
  0.5346841758717282  0.1675091351529372  0.3467556043320766
  0.5356112315357134  0.5000738722834663  0.3469846668092956
  0.5350199581376207  0.8327680443843823  0.3468463062960527
  0.8680645035942162  0.1664510418762614  0.3468990802779656
  0.8654316142251157  0.4989283236504139  0.3469808905085865
  0.8684406900082741  0.8338446582337915  0.3466757330818578
  0.2014124774280353  0.1662252662097952  0.4686045431746708
  0.2005799132331546  0.5001671968843251  0.4682368934553007
  0.2012480625371212  0.8331392643317244  0.4682222756750957
  0.5344807002898486  0.1669063477917021  0.4686588023215403
  0.5353946923581799  0.4999269553356735  0.4686689359282829
  0.5350758531310223  0.8332816445392679  0.4684664129033064
  0.8680664345493374  0.1665613031686091  0.4686105740018229
  0.8681566786224164  0.5002063191717410  0.4683017446841267
  0.8682883946461369  0.8330506674566930  0.4685708915746529
  0.2005438430746839  0.1667265027985831  0.5942614383107967
  0.2010114880369088  0.4999906513606659  0.5936009846794567
  0.2018529745050565  0.8337049498793597  0.5938973228104465
  0.5339585332840154  0.1658351305856514  0.5941142374245326
  0.5357055847776477  0.5000773754508238  0.5943932074362607
  0.5345617888509728  0.8327391691612896  0.5940294609985188
  0.8678249234358194  0.1680562082121427  0.5944653994481996
  0.8684243785340238  0.5005614911467462  0.5944419465541870
  0.8679392368978878  0.8335503604822558  0.5936922361059432
  0.0349225051055464  0.1668984056319877  0.4062712210546601
  0.0340965622297922  0.4995422332339772  0.4055727546394106
  0.0350854730161388  0.8319919109043813  0.4056233293254755
  0.3683150921035553  0.1671440658134878  0.4058936999435972
  0.3667274993653069  0.4999313254636131  0.4055629082613935
  0.3687789031650815  0.8339876362757855  0.4060804613262015
  0.7009770110801448  0.1661580013253634  0.4060562520712782
  0.7010592852913597  0.4999375827022270  0.4063749116223203
  0.7020555313209195  0.8331333109587611  0.4057769029720107
  0.0345346902844606  0.1675181109679084  0.5314535244127692
  0.0343333126143157  0.4996245574349123  0.5316653878737089
  0.0348169049038117  0.8329528917828058  0.5314047820740977
  0.3679147130358538  0.1663411354923674  0.5314996024089121
  0.3672296354042235  0.4999274917436158  0.5313821176168995
  0.3683758204915386  0.8335595338516040  0.5313640759712285
  0.7014952607945262  0.1669932136323815  0.5318577002914138
  0.7017866560657805  0.4997827220804359  0.5317137197120743
  0.7014045548959491  0.8339335522527168  0.5313879143479847
  0.0344494197189735  0.1664506343307530  0.6534496225293389
  0.0370655601721008  0.5010995474010743  0.6530459426237611
  0.0348677395944546  0.8332406496959132  0.6530635916696119
  0.3677612162783452  0.1668169451959099  0.6531982998313846
  0.3668360916622979  0.4999005376815019  0.6529624480145251
  0.3681480487404707  0.8326467428830260  0.6531997609032053
  0.7002646461781613  0.1644232660196486  0.6529860956693678
  0.6969391639394320  0.5029518012788171  0.6558564853233528
  0.7016969143863642  0.8343448280476827  0.6530204922237581
  0.2010842363916573  0.0004425897153894  0.4063518437304920
  0.2011332359353045  0.3349702490384321  0.4052601434923473
  0.2018547560750799  0.6670030019895055  0.4056927862879973
  0.5350945480651345  0.0003462417405062  0.4057772210253003
  0.5344635673259588  0.3329999197992717  0.4061640150370006
  0.5353976720244167  0.6667910851333019  0.4064274288749802
  0.8675586346383984 -0.0000727444338450  0.4059167525763053
  0.8675653946672531  0.3328466568458768  0.4061038847774909
  0.8699255703493846  0.6665454271749652  0.4054354584389259
  0.2010869072727970  0.0000456510146079  0.5314045270093812
  0.2018978680059395  0.3333872353829379  0.5312826920729213
  0.2013917445823795  0.6665338739793859  0.5313444703577455
  0.5343562572889249 -0.0002812085639047  0.5314606020025862
  0.5349028872676463  0.3332525513864152  0.5318996488247556
  0.5348372591935155  0.6670291792696186  0.5313834631222142
  0.8679590753599559 -0.0003697096946729  0.5314749536798915
  0.8678215628689203  0.3336940892877280  0.5317910466261387
  0.8677422615475476  0.6662743212370121  0.5317617202339556
  0.2005231797638166  0.0000959652702438  0.6532635252897715
  0.2023692392503534  0.3341363001756221  0.6530747177043050
  0.2016095521259952  0.6664833979105332  0.6530516086998503
  0.5348153248934562 -0.0003979853041045  0.6532423012691040
  0.5323878345909645  0.3325500851464388  0.6529102278020441
  0.5343173930342013  0.6669626065535186  0.6533670398675883
  0.8674315129884242 -0.0006939762430322  0.6530076986597046
  0.8708956173839641  0.3296763335547028  0.6558212292116334
  0.8691530225017755  0.6690297453200816  0.6530997332140804
  0.7838045748904746  0.4165462804000125  0.7059827337397544
  0.1182941187903506  0.5832020168226897  0.2937638890753950
 
  0.00000000E+00  0.00000000E+00  0.00000000E+00
  0.00000000E+00  0.00000000E+00  0.00000000E+00
  0.00000000E+00  0.00000000E+00  0.00000000E+00
  0.00000000E+00  0.00000000E+00  0.00000000E+00
  0.00000000E+00  0.00000000E+00  0.00000000E+00
  0.00000000E+00  0.00000000E+00  0.00000000E+00
  0.00000000E+00  0.00000000E+00  0.00000000E+00
  0.00000000E+00  0.00000000E+00  0.00000000E+00
  0.00000000E+00  0.00000000E+00  0.00000000E+00
  0.00000000E+00  0.00000000E+00  0.00000000E+00
  0.00000000E+00  0.00000000E+00  0.00000000E+00
  0.00000000E+00  0.00000000E+00  0.00000000E+00
  0.00000000E+00  0.00000000E+00  0.00000000E+00
  0.00000000E+00  0.00000000E+00  0.00000000E+00
  0.00000000E+00  0.00000000E+00  0.00000000E+00
  0.00000000E+00  0.00000000E+00  0.00000000E+00
  0.00000000E+00  0.00000000E+00  0.00000000E+00
  0.00000000E+00  0.00000000E+00  0.00000000E+00
  0.00000000E+00  0.00000000E+00  0.00000000E+00
  0.00000000E+00  0.00000000E+00  0.00000000E+00
  0.00000000E+00  0.00000000E+00  0.00000000E+00
  0.00000000E+00  0.00000000E+00  0.00000000E+00
  0.00000000E+00  0.00000000E+00  0.00000000E+00
  0.00000000E+00  0.00000000E+00  0.00000000E+00
  0.00000000E+00  0.00000000E+00  0.00000000E+00
  0.00000000E+00  0.00000000E+00  0.00000000E+00
  0.00000000E+00  0.00000000E+00  0.00000000E+00
  0.00000000E+00  0.00000000E+00  0.00000000E+00
  0.00000000E+00  0.00000000E+00  0.00000000E+00
  0.00000000E+00  0.00000000E+00  0.00000000E+00
  0.00000000E+00  0.00000000E+00  0.00000000E+00
  0.00000000E+00  0.00000000E+00  0.00000000E+00
  0.00000000E+00  0.00000000E+00  0.00000000E+00
  0.00000000E+00  0.00000000E+00  0.00000000E+00
  0.00000000E+00  0.00000000E+00  0.00000000E+00
  0.00000000E+00  0.00000000E+00  0.00000000E+00
  0.00000000E+00  0.00000000E+00  0.00000000E+00
  0.00000000E+00  0.00000000E+00  0.00000000E+00
  0.00000000E+00  0.00000000E+00  0.00000000E+00
  0.00000000E+00  0.00000000E+00  0.00000000E+00
  0.00000000E+00  0.00000000E+00  0.00000000E+00
  0.00000000E+00  0.00000000E+00  0.00000000E+00
  0.00000000E+00  0.00000000E+00  0.00000000E+00
  0.00000000E+00  0.00000000E+00  0.00000000E+00
  0.00000000E+00  0.00000000E+00  0.00000000E+00
  0.00000000E+00  0.00000000E+00  0.00000000E+00
  0.00000000E+00  0.00000000E+00  0.00000000E+00
  0.00000000E+00  0.00000000E+00  0.00000000E+00
  0.00000000E+00  0.00000000E+00  0.00000000E+00
  0.00000000E+00  0.00000000E+00  0.00000000E+00
  0.00000000E+00  0.00000000E+00  0.00000000E+00
  0.00000000E+00  0.00000000E+00  0.00000000E+00
  0.00000000E+00  0.00000000E+00  0.00000000E+00
  0.00000000E+00  0.00000000E+00  0.00000000E+00
  0.00000000E+00  0.00000000E+00  0.00000000E+00
  0.00000000E+00  0.00000000E+00  0.00000000E+00
  0.00000000E+00  0.00000000E+00  0.00000000E+00
  0.00000000E+00  0.00000000E+00  0.00000000E+00
  0.00000000E+00  0.00000000E+00  0.00000000E+00
  0.00000000E+00  0.00000000E+00  0.00000000E+00
  0.00000000E+00  0.00000000E+00  0.00000000E+00
  0.00000000E+00  0.00000000E+00  0.00000000E+00
  0.00000000E+00  0.00000000E+00  0.00000000E+00
  0.00000000E+00  0.00000000E+00  0.00000000E+00
  0.00000000E+00  0.00000000E+00  0.00000000E+00
  0.00000000E+00  0.00000000E+00  0.00000000E+00
  0.00000000E+00  0.00000000E+00  0.00000000E+00
  0.00000000E+00  0.00000000E+00  0.00000000E+00
  0.00000000E+00  0.00000000E+00  0.00000000E+00
  0.00000000E+00  0.00000000E+00  0.00000000E+00
  0.00000000E+00  0.00000000E+00  0.00000000E+00
  0.00000000E+00  0.00000000E+00  0.00000000E+00
  0.00000000E+00  0.00000000E+00  0.00000000E+00
  0.00000000E+00  0.00000000E+00  0.00000000E+00
  0.00000000E+00  0.00000000E+00  0.00000000E+00
  0.00000000E+00  0.00000000E+00  0.00000000E+00
  0.00000000E+00  0.00000000E+00  0.00000000E+00
  0.00000000E+00  0.00000000E+00  0.00000000E+00
  0.00000000E+00  0.00000000E+00  0.00000000E+00
  0.00000000E+00  0.00000000E+00  0.00000000E+00
  0.00000000E+00  0.00000000E+00  0.00000000E+00
  0.00000000E+00  0.00000000E+00  0.00000000E+00
  0.00000000E+00  0.00000000E+00  0.00000000E+00
  0.00000000E+00  0.00000000E+00  0.00000000E+00
  0.00000000E+00  0.00000000E+00  0.00000000E+00
  0.00000000E+00  0.00000000E+00  0.00000000E+00
  0.00000000E+00  0.00000000E+00  0.00000000E+00
  0.00000000E+00  0.00000000E+00  0.00000000E+00
  0.00000000E+00  0.00000000E+00  0.00000000E+00
  0.00000000E+00  0.00000000E+00  0.00000000E+00
  0.00000000E+00  0.00000000E+00  0.00000000E+00
  0.00000000E+00  0.00000000E+00  0.00000000E+00
  0.00000000E+00  0.00000000E+00  0.00000000E+00
  0.00000000E+00  0.00000000E+00  0.00000000E+00
  0.00000000E+00  0.00000000E+00  0.00000000E+00
  0.00000000E+00  0.00000000E+00  0.00000000E+00
  0.00000000E+00  0.00000000E+00  0.00000000E+00
  0.00000000E+00  0.00000000E+00  0.00000000E+00
  0.00000000E+00  0.00000000E+00  0.00000000E+00
  0.00000000E+00  0.00000000E+00  0.00000000E+00
  0.00000000E+00  0.00000000E+00  0.00000000E+00
  0.00000000E+00  0.00000000E+00  0.00000000E+00
  0.00000000E+00  0.00000000E+00  0.00000000E+00
  0.00000000E+00  0.00000000E+00  0.00000000E+00
  0.00000000E+00  0.00000000E+00  0.00000000E+00
  0.00000000E+00  0.00000000E+00  0.00000000E+00
  0.00000000E+00  0.00000000E+00  0.00000000E+00
  0.00000000E+00  0.00000000E+00  0.00000000E+00
  0.00000000E+00  0.00000000E+00  0.00000000E+00
  0.00000000E+00  0.00000000E+00  0.00000000E+00
  0.00000000E+00  0.00000000E+00  0.00000000E+00
  0.00000000E+00  0.00000000E+00  0.00000000E+00
