H4 Pt108                                
    1.000000000000000     
    11.8285000000000000    0.0000000000000000    0.0000000000000000
     0.0000000000000000   11.8285000000000000    0.0000000000000000
     0.0000000000000000    0.0000000000000000   29.8570999999999991
   H    Pt
     4   108
Direct
  0.1209746773462854  0.0815300026793291  0.7047831457848486
 -0.0522775177892495  0.2512640797686163  0.7046543448235927
  0.7814265934187610  0.9184137528069217  0.2952100519642351
  0.9546935641152894  0.7486502054089142  0.2953635356318266
  0.0370514824888238  0.0024862736541473  0.3343855074400906
  0.0346150956030160  0.3332210523020426  0.3348829718647670
  0.0356823683364186  0.6657699500711278  0.3316855355295885
  0.3678659455724461 -0.0000025833971034  0.3347723246857838
  0.3680579745072838  0.3334612314690437  0.3345242708199087
  0.3681253756085045  0.6666025500071447  0.3347833316590152
  0.7000654029890516  0.0008788045298044  0.3314988184840127
  0.7013699778284259  0.3337435993056934  0.3347566920333510
  0.6986962326755307  0.6642249629623519  0.3343176535448413
  0.0342179867033114  0.9996635867963767  0.4665341003994447
  0.0346594286587026  0.3327477995792634  0.4670247115016781
  0.0338288550402963  0.6675602966378174  0.4656835264790810
  0.3675298126225504  0.0000948524045100  0.4669819125746044
  0.3674091022993428  0.3331596083284731  0.4662694895063520
  0.3683220959304492  0.6667506080304865  0.4670881036574504
  0.7027020520886520 -0.0006321173459807  0.4658637812071736
  0.7016822242910776  0.3337841179271340  0.4669904181002690
  0.7019507236588217  0.6671577542432531  0.4666242839364759
  0.0347247890108047  0.0009564976159437  0.6014679627591611
  0.0350421133706894  0.3321646549019622  0.6013806208114192
  0.0347815172475025  0.6665385919368324  0.5994854755013201
  0.3666281099530244  0.0010673297731917  0.6005511644036491
  0.3678493968473636  0.3329359951987150  0.5995038001891148
  0.3677852976155562  0.6667199710562819  0.6001187438921087
  0.7014915310596090  0.0003105372049379  0.5995536996802314
  0.7023224700715089  0.3326759785403884  0.6005405450502186
  0.7016330715235901  0.6662691191914839  0.6001414018192198
  0.2018786978636819  0.1671498102674689  0.3349327854472038
  0.2008306742373995  0.5003823509454086  0.3345870597092621
  0.2032907166638200  0.8344347630184721  0.3345256636568508
  0.5350294166865605  0.1664965018387936  0.3345258755029263
  0.5341874606566297  0.4996706964697398  0.3348119107547844
  0.5327538166881325  0.8321385647373940  0.3345063205024223
  0.8688699588401343  0.1684910227900576  0.3346294120343201
  0.8668472849513857  0.4982654367354984  0.3344972781736090
  0.8677790316312222  0.8333205418721932  0.3294248140598720
  0.2010877359192348  0.1665017783114070  0.4668375427382617
  0.2003016666362819  0.5001641205356402  0.4661270938153079
  0.2015131180727381  0.8329935604771691  0.4668488398164745
  0.5355411987965881  0.1659429787691934  0.4658588587507321
  0.5349126264714300  0.5001257916195900  0.4668925596464403
  0.5344997588430335  0.8339781442679841  0.4669335518643613
  0.8677130796755412  0.1668059229569634  0.4668520818616850
  0.8686409049753635  0.4997564957715794  0.4668544025805715
  0.8682658094716350  0.8339077532210185  0.4656459291738980
  0.2004173961288209  0.1667085201762874  0.6013769859651533
  0.2011613347071443  0.4996828491747820  0.5995915150866951
  0.2007313052584497  0.8344318765103350  0.6006481952203718
  0.5347258121287926  0.1665948422017199  0.5994383475357888
  0.5348716275204431  0.4995000776013450  0.6000727753414964
  0.5341541238116184  0.8339174657421339  0.6001072609483147
  0.8688580742142246  0.1666288780521503  0.6014825969628373
  0.8689484235627954  0.4986839813851216  0.6006132632099874
  0.8683797353358527  0.8335124109584162  0.5995863724691609
  0.0344303927932141  0.1664600788832597  0.4004547080050829
  0.0336448155013796  0.5013897279420326  0.3994064243850904
  0.0338809080287246  0.8333663720175750  0.3985458926150464
  0.3685722839201239  0.1662023397820807  0.3998558163671878
  0.3676643616971696  0.5004392027266350  0.3999445879787408
  0.3680582777124707  0.8333272678707311  0.4005351785820141
  0.7019636961104390  0.1655815926777453  0.3993187777668676
  0.7015209271217853  0.5003214134488085  0.4004600822413155
  0.7021529131630203  0.8332095823956006  0.3986496758599323
  0.0343939595478184  0.1660104939155606  0.5343351443034906
  0.0341617784988860  0.5003691798503385  0.5331903408744386
  0.0350806587234950  0.8332187128357708  0.5331120825698678
  0.3682549464145337  0.1660998927779143  0.5330798705244275
  0.3679018211314777  0.4998707824342929  0.5331443306922414
  0.3672067856105385  0.8342114180653718  0.5341201138558899
  0.7014520111525983  0.1670307705336720  0.5331347374442820
  0.7023336454861241  0.4998724255354060  0.5339147017753272
  0.7018022794655501  0.8335162147434158  0.5331657226633005
  0.0347490006438941  0.1667782454090677  0.6706335157184268
  0.0356564904374628  0.5016669871515822  0.6655060010340164
  0.0338681130061545  0.8314200677175991  0.6654272235577732
  0.3699524629937004  0.1676177960172183  0.6654912754446165
  0.3685807718273427  0.5002374716722298  0.6651401016233165
  0.3676464550673234  0.8336720630403340  0.6654335640758420
  0.6994536900710797  0.1655375661458975  0.6654893680282756
  0.7015081257996648  0.4996071831630619  0.6654044109507364
  0.7007478434150201  0.8328963541175100  0.6650451349569723
  0.2012642221263869  0.9997086944772959  0.4004321567869570
  0.2009962629727150  0.3337409278258638  0.3998485849897400
  0.2003937407143360  0.6672628825090213  0.3994668764983912
  0.5359824641524646 -0.0009747277805204  0.3993684040548175
  0.5349804721000371  0.3333731189890267  0.3999183167701409
  0.5347652250066560  0.6668964631505029  0.4005186812664541
  0.8679455357846593  0.9989790940735507  0.3984986286408819
  0.8679374782520256  0.3334531078076462  0.4005197950709715
  0.8675894150696752  0.6678350989721298  0.3985806834680977
  0.1999405909151533  0.0006952125844251  0.5340840983708287
  0.2007722571514220  0.3328254386929766  0.5334314110537616
  0.2012326289141838  0.6662184784886837  0.5330518060955536
  0.5354161071208743  0.0000277486892528  0.5330038627488384
  0.5344444197000063  0.3332933227820163  0.5329452272062638
  0.5352394344571795  0.6669256953372876  0.5337725282628309
  0.8685722628901508  0.0002515443996995  0.5334280862744459
  0.8689950801784990  0.3325069382878661  0.5343178877295672
  0.8681058348022211  0.6673106488176270  0.5329839947436866
  0.2023828460651871 -0.0008835490985031  0.6684884878712984
  0.2039245880812730  0.3357130771964813  0.6656963924155674
  0.2013482115760730  0.6662259008247557  0.6652455395451151
  0.5347558731666887  0.0000072652099994  0.6652385848699908
  0.5345227708655410  0.3331344838130846  0.6652063863809377
  0.5346740776480029  0.6666701254486751  0.6654685358633748
  0.8656769814092807 -0.0025190130365547  0.6656201882538393
  0.8668209828213518  0.3343407581763573  0.6683406415475213
  0.8679812802746214  0.6666928604936686  0.6651362107619786
 
  0.00000000E+00  0.00000000E+00  0.00000000E+00
  0.00000000E+00  0.00000000E+00  0.00000000E+00
  0.00000000E+00  0.00000000E+00  0.00000000E+00
  0.00000000E+00  0.00000000E+00  0.00000000E+00
  0.00000000E+00  0.00000000E+00  0.00000000E+00
  0.00000000E+00  0.00000000E+00  0.00000000E+00
  0.00000000E+00  0.00000000E+00  0.00000000E+00
  0.00000000E+00  0.00000000E+00  0.00000000E+00
  0.00000000E+00  0.00000000E+00  0.00000000E+00
  0.00000000E+00  0.00000000E+00  0.00000000E+00
  0.00000000E+00  0.00000000E+00  0.00000000E+00
  0.00000000E+00  0.00000000E+00  0.00000000E+00
  0.00000000E+00  0.00000000E+00  0.00000000E+00
  0.00000000E+00  0.00000000E+00  0.00000000E+00
  0.00000000E+00  0.00000000E+00  0.00000000E+00
  0.00000000E+00  0.00000000E+00  0.00000000E+00
  0.00000000E+00  0.00000000E+00  0.00000000E+00
  0.00000000E+00  0.00000000E+00  0.00000000E+00
  0.00000000E+00  0.00000000E+00  0.00000000E+00
  0.00000000E+00  0.00000000E+00  0.00000000E+00
  0.00000000E+00  0.00000000E+00  0.00000000E+00
  0.00000000E+00  0.00000000E+00  0.00000000E+00
  0.00000000E+00  0.00000000E+00  0.00000000E+00
  0.00000000E+00  0.00000000E+00  0.00000000E+00
  0.00000000E+00  0.00000000E+00  0.00000000E+00
  0.00000000E+00  0.00000000E+00  0.00000000E+00
  0.00000000E+00  0.00000000E+00  0.00000000E+00
  0.00000000E+00  0.00000000E+00  0.00000000E+00
  0.00000000E+00  0.00000000E+00  0.00000000E+00
  0.00000000E+00  0.00000000E+00  0.00000000E+00
  0.00000000E+00  0.00000000E+00  0.00000000E+00
  0.00000000E+00  0.00000000E+00  0.00000000E+00
  0.00000000E+00  0.00000000E+00  0.00000000E+00
  0.00000000E+00  0.00000000E+00  0.00000000E+00
  0.00000000E+00  0.00000000E+00  0.00000000E+00
  0.00000000E+00  0.00000000E+00  0.00000000E+00
  0.00000000E+00  0.00000000E+00  0.00000000E+00
  0.00000000E+00  0.00000000E+00  0.00000000E+00
  0.00000000E+00  0.00000000E+00  0.00000000E+00
  0.00000000E+00  0.00000000E+00  0.00000000E+00
  0.00000000E+00  0.00000000E+00  0.00000000E+00
  0.00000000E+00  0.00000000E+00  0.00000000E+00
  0.00000000E+00  0.00000000E+00  0.00000000E+00
  0.00000000E+00  0.00000000E+00  0.00000000E+00
  0.00000000E+00  0.00000000E+00  0.00000000E+00
  0.00000000E+00  0.00000000E+00  0.00000000E+00
  0.00000000E+00  0.00000000E+00  0.00000000E+00
  0.00000000E+00  0.00000000E+00  0.00000000E+00
  0.00000000E+00  0.00000000E+00  0.00000000E+00
  0.00000000E+00  0.00000000E+00  0.00000000E+00
  0.00000000E+00  0.00000000E+00  0.00000000E+00
  0.00000000E+00  0.00000000E+00  0.00000000E+00
  0.00000000E+00  0.00000000E+00  0.00000000E+00
  0.00000000E+00  0.00000000E+00  0.00000000E+00
  0.00000000E+00  0.00000000E+00  0.00000000E+00
  0.00000000E+00  0.00000000E+00  0.00000000E+00
  0.00000000E+00  0.00000000E+00  0.00000000E+00
  0.00000000E+00  0.00000000E+00  0.00000000E+00
  0.00000000E+00  0.00000000E+00  0.00000000E+00
  0.00000000E+00  0.00000000E+00  0.00000000E+00
  0.00000000E+00  0.00000000E+00  0.00000000E+00
  0.00000000E+00  0.00000000E+00  0.00000000E+00
  0.00000000E+00  0.00000000E+00  0.00000000E+00
  0.00000000E+00  0.00000000E+00  0.00000000E+00
  0.00000000E+00  0.00000000E+00  0.00000000E+00
  0.00000000E+00  0.00000000E+00  0.00000000E+00
  0.00000000E+00  0.00000000E+00  0.00000000E+00
  0.00000000E+00  0.00000000E+00  0.00000000E+00
  0.00000000E+00  0.00000000E+00  0.00000000E+00
  0.00000000E+00  0.00000000E+00  0.00000000E+00
  0.00000000E+00  0.00000000E+00  0.00000000E+00
  0.00000000E+00  0.00000000E+00  0.00000000E+00
  0.00000000E+00  0.00000000E+00  0.00000000E+00
  0.00000000E+00  0.00000000E+00  0.00000000E+00
  0.00000000E+00  0.00000000E+00  0.00000000E+00
  0.00000000E+00  0.00000000E+00  0.00000000E+00
  0.00000000E+00  0.00000000E+00  0.00000000E+00
  0.00000000E+00  0.00000000E+00  0.00000000E+00
  0.00000000E+00  0.00000000E+00  0.00000000E+00
  0.00000000E+00  0.00000000E+00  0.00000000E+00
  0.00000000E+00  0.00000000E+00  0.00000000E+00
  0.00000000E+00  0.00000000E+00  0.00000000E+00
  0.00000000E+00  0.00000000E+00  0.00000000E+00
  0.00000000E+00  0.00000000E+00  0.00000000E+00
  0.00000000E+00  0.00000000E+00  0.00000000E+00
  0.00000000E+00  0.00000000E+00  0.00000000E+00
  0.00000000E+00  0.00000000E+00  0.00000000E+00
  0.00000000E+00  0.00000000E+00  0.00000000E+00
  0.00000000E+00  0.00000000E+00  0.00000000E+00
  0.00000000E+00  0.00000000E+00  0.00000000E+00
  0.00000000E+00  0.00000000E+00  0.00000000E+00
  0.00000000E+00  0.00000000E+00  0.00000000E+00
  0.00000000E+00  0.00000000E+00  0.00000000E+00
  0.00000000E+00  0.00000000E+00  0.00000000E+00
  0.00000000E+00  0.00000000E+00  0.00000000E+00
  0.00000000E+00  0.00000000E+00  0.00000000E+00
  0.00000000E+00  0.00000000E+00  0.00000000E+00
  0.00000000E+00  0.00000000E+00  0.00000000E+00
  0.00000000E+00  0.00000000E+00  0.00000000E+00
  0.00000000E+00  0.00000000E+00  0.00000000E+00
  0.00000000E+00  0.00000000E+00  0.00000000E+00
  0.00000000E+00  0.00000000E+00  0.00000000E+00
  0.00000000E+00  0.00000000E+00  0.00000000E+00
  0.00000000E+00  0.00000000E+00  0.00000000E+00
  0.00000000E+00  0.00000000E+00  0.00000000E+00
  0.00000000E+00  0.00000000E+00  0.00000000E+00
  0.00000000E+00  0.00000000E+00  0.00000000E+00
  0.00000000E+00  0.00000000E+00  0.00000000E+00
  0.00000000E+00  0.00000000E+00  0.00000000E+00
  0.00000000E+00  0.00000000E+00  0.00000000E+00
  0.00000000E+00  0.00000000E+00  0.00000000E+00
  0.00000000E+00  0.00000000E+00  0.00000000E+00
