H4 Rh108                                
    1.000000000000000     
    11.8285000000000000    0.0000000000000000    0.0000000000000000
     0.0000000000000000   11.8285000000000000    0.0000000000000000
     0.0000000000000000    0.0000000000000000   29.8570999999999991
   H    Rh
     4   108
Direct
  0.7817389455230739  0.5858219631725987  0.6910697007266222
  0.6176045700535013  0.4182209478369643  0.6911295960099508
  0.1212988823390617  0.4142393178224282  0.3089598696580040
  0.2852831895984167  0.5821438700088493  0.3088809137873199
  0.0345994302204247  0.9998452062265102  0.3466936840693648
  0.0363963783412657  0.3341205843270956  0.3458860642610091
  0.0329260057161704  0.6681800258773976  0.3467159282251728
  0.3679898987011185  0.0000637932591587  0.3467589624915490
  0.3702398732792531  0.3316313434451104  0.3468113765067855
  0.3667850438569076  0.6652447483129507  0.3459450625540228
  0.7008647934875256  0.9999637667066779  0.3468979344757841
  0.7013989190299910  0.3334236134304689  0.3468019534818083
  0.7014293749839311  0.6664891292217803  0.3467544149784487
  0.0346888370196936  0.9996169914386996  0.4685976869551354
  0.0351214857899009  0.3331307564256463  0.4682482425078192
  0.0345543530891490  0.6666625163526660  0.4682545115039787
  0.3677963149507235  0.0002721073638767  0.4686816830480183
  0.3683312590208558  0.3337856858151582  0.4683857753009093
  0.3675787833745119  0.6665266478008149  0.4682439793319020
  0.7009577181226305  0.9999536538681966  0.4685064085104216
  0.7012508412649652  0.3336126410717384  0.4686332633897763
  0.7015761276487780  0.6663900324036760  0.4686497835364278
  0.0344970906089799  0.9996828017157142  0.5940619168225396
  0.0350346885576442  0.3328589921735841  0.5939081886104773
  0.0343344968510308  0.6666086881815119  0.5942122823037579
  0.3680034277152018  0.0004053517219305  0.5941376057038568
  0.3684574115348553  0.3336158936770914  0.5941726676569132
  0.3676839229111621  0.6672272283564169  0.5939735868440366
  0.7013760302563341  0.0000287039370335  0.5940557688390840
  0.7020800799338787  0.3328053100517323  0.5942700713111648
  0.7004401945844805  0.6673059164955077  0.5942546999104508
  0.2024021946131924  0.1652405576153910  0.3468046088461421
  0.2017413073855749  0.4997796529988250  0.3452565949488573
  0.2005297932460763  0.8347770241148424  0.3466729350977360
  0.5352320403923017  0.1667360075831681  0.3468575734401824
  0.5361812137236086  0.4994270253324160  0.3467671195237187
  0.5348264673614054  0.8330444915308490  0.3467094110842410
  0.8679539394720450  0.1662150362143890  0.3467013330636490
  0.8662992382895141  0.5003354515521963  0.3466844225182797
  0.8676213625128781  0.8335967142808016  0.3467879825324260
  0.2013591668487464  0.1662656928776158  0.4685172039694265
  0.2009690854387429  0.5000405133917241  0.4680816838068935
  0.2013111358337412  0.8337132271778316  0.4685076581307541
  0.5349946515080575  0.1669892416372605  0.4685198497764986
  0.5353949696962417  0.5000610372481091  0.4685978678866292
  0.5341384870536956  0.8329524065386380  0.4685060788082183
  0.8684777583649250  0.1664749042613991  0.4685074289640525
  0.8672790875391243  0.4999733846941510  0.4685159053174388
  0.8678968457029725  0.8333011623594402  0.4684456370617411
  0.2018992635038970  0.1667388934707006  0.5940105400830191
  0.2013575103939118  0.5000498780342610  0.5940249867463336
  0.2005073957652996  0.8332878086021864  0.5940552788716715
  0.5349495582275594  0.1669922746914168  0.5943964349976056
  0.5337612626772454  0.5005419516583061  0.5942032520206126
  0.5342457379514798  0.8338344477544553  0.5941200377551823
  0.8685231015701262  0.1663009623532403  0.5939360199701866
  0.8688117584485155  0.4995312816868065  0.5941897383970272
  0.8678329835560916  0.8331972844345614  0.5943485059931106
  0.0349202046667187  0.1667370096481093  0.4056411264486144
  0.0338181415249892  0.5002491483398046  0.4056715855036117
  0.0344097561927796  0.8335357825636933  0.4059062445802368
  0.3685864240902745  0.1661901236554755  0.4060952348766591
  0.3688597770912594  0.4994847755947305  0.4058495692674313
  0.3677772333802025  0.8331202495519321  0.4056363565433045
  0.7020668805450256  0.1666935603307778  0.4060267887095961
  0.7014135220026958  0.5000010010844704  0.4059735953060795
  0.7007160510259354  0.8330807194066665  0.4059500592838461
  0.0349209657863909  0.1669687081203648  0.5314924009685456
  0.0353925724530058  0.5000716193123935  0.5314063235034396
  0.0342173026952253  0.8329353862102451  0.5314616699337193
  0.3684786624785588  0.1665700922948830  0.5315135030854563
  0.3672525112195686  0.5000552636040823  0.5314775911337506
  0.3678356678094019  0.8333667164989009  0.5315457469568230
  0.7014076446854318  0.1662084839541009  0.5315015142970339
  0.7009756750236065  0.5000232673836607  0.5319141712129891
  0.7012942615302435  0.8337186920885316  0.5314898408520037
  0.0351988730068626  0.1668861060386462  0.6531675354664586
  0.0360114628673998  0.4995729355612113  0.6532276439628859
  0.0346136743310979  0.8332078932275024  0.6533310176258809
  0.3677850110972969  0.1666456722903291  0.6532903755730359
  0.3662384468065909  0.5007285644501422  0.6532977924243824
  0.3674004808685680  0.8338450674817039  0.6531897472183701
  0.7023303112217434  0.1653561535703219  0.6532193173513861
  0.7015013344838792  0.5001975117595947  0.6547470449772845
  0.7005659719709669  0.8349064433474283  0.6532992890199694
  0.2013959535672925  0.9999804245271449  0.4059581381296340
  0.2022136250806881  0.3327110499664343  0.4057986643321740
  0.2005579490844056  0.6671177063581766  0.4057011377138693
  0.5344974106724223  0.9995659915285842  0.4059493610340112
  0.5351209163701824  0.3327968721329100  0.4061202799422858
  0.5343955480766382  0.6665565149092174  0.4057719830974236
  0.8679601639920023  0.0000972019122756  0.4058508930625209
  0.8686463745344994  0.3333047698124574  0.4057659163725305
  0.8678247596588804  0.6668959076235907  0.4059787612117987
  0.2009488385732396  0.9999743056947139  0.5314942390588868
  0.2011894871875199  0.3336266778429717  0.5313572163817568
  0.2015277265319284  0.6664358620960513  0.5313335739904446
  0.5347104921006078  0.9996622731002844  0.5314127812049207
  0.5351443586759146  0.3331695301817135  0.5317752586105797
  0.5345218610447802  0.6667385510603054  0.5317292361852068
  0.8678096221102152  0.0001681535825426  0.5313852878522738
  0.8682914187984849  0.3338183023636034  0.5316497743568078
  0.8675477419415074  0.6665176224453191  0.5317373568885557
  0.2008705638809047  0.0000698148516989  0.6530933886867345
  0.2013382763669185  0.3335319309001079  0.6531881251072704
  0.2013207583031615  0.6665680593545034  0.6532319181776884
  0.5345743172732398  0.0002039778706333  0.6533146851499367
  0.5358316129846656  0.3350425571706879  0.6542159399780871
  0.5327943609761547  0.6684148827456937  0.6532250427320960
  0.8679268189929559  0.0001848491957901  0.6532753007997982
  0.8700519687088644  0.3317056203292665  0.6532276548969733
  0.8665835682138550  0.6655151004796309  0.6540393260387418
 
  0.00000000E+00  0.00000000E+00  0.00000000E+00
  0.00000000E+00  0.00000000E+00  0.00000000E+00
  0.00000000E+00  0.00000000E+00  0.00000000E+00
  0.00000000E+00  0.00000000E+00  0.00000000E+00
  0.00000000E+00  0.00000000E+00  0.00000000E+00
  0.00000000E+00  0.00000000E+00  0.00000000E+00
  0.00000000E+00  0.00000000E+00  0.00000000E+00
  0.00000000E+00  0.00000000E+00  0.00000000E+00
  0.00000000E+00  0.00000000E+00  0.00000000E+00
  0.00000000E+00  0.00000000E+00  0.00000000E+00
  0.00000000E+00  0.00000000E+00  0.00000000E+00
  0.00000000E+00  0.00000000E+00  0.00000000E+00
  0.00000000E+00  0.00000000E+00  0.00000000E+00
  0.00000000E+00  0.00000000E+00  0.00000000E+00
  0.00000000E+00  0.00000000E+00  0.00000000E+00
  0.00000000E+00  0.00000000E+00  0.00000000E+00
  0.00000000E+00  0.00000000E+00  0.00000000E+00
  0.00000000E+00  0.00000000E+00  0.00000000E+00
  0.00000000E+00  0.00000000E+00  0.00000000E+00
  0.00000000E+00  0.00000000E+00  0.00000000E+00
  0.00000000E+00  0.00000000E+00  0.00000000E+00
  0.00000000E+00  0.00000000E+00  0.00000000E+00
  0.00000000E+00  0.00000000E+00  0.00000000E+00
  0.00000000E+00  0.00000000E+00  0.00000000E+00
  0.00000000E+00  0.00000000E+00  0.00000000E+00
  0.00000000E+00  0.00000000E+00  0.00000000E+00
  0.00000000E+00  0.00000000E+00  0.00000000E+00
  0.00000000E+00  0.00000000E+00  0.00000000E+00
  0.00000000E+00  0.00000000E+00  0.00000000E+00
  0.00000000E+00  0.00000000E+00  0.00000000E+00
  0.00000000E+00  0.00000000E+00  0.00000000E+00
  0.00000000E+00  0.00000000E+00  0.00000000E+00
  0.00000000E+00  0.00000000E+00  0.00000000E+00
  0.00000000E+00  0.00000000E+00  0.00000000E+00
  0.00000000E+00  0.00000000E+00  0.00000000E+00
  0.00000000E+00  0.00000000E+00  0.00000000E+00
  0.00000000E+00  0.00000000E+00  0.00000000E+00
  0.00000000E+00  0.00000000E+00  0.00000000E+00
  0.00000000E+00  0.00000000E+00  0.00000000E+00
  0.00000000E+00  0.00000000E+00  0.00000000E+00
  0.00000000E+00  0.00000000E+00  0.00000000E+00
  0.00000000E+00  0.00000000E+00  0.00000000E+00
  0.00000000E+00  0.00000000E+00  0.00000000E+00
  0.00000000E+00  0.00000000E+00  0.00000000E+00
  0.00000000E+00  0.00000000E+00  0.00000000E+00
  0.00000000E+00  0.00000000E+00  0.00000000E+00
  0.00000000E+00  0.00000000E+00  0.00000000E+00
  0.00000000E+00  0.00000000E+00  0.00000000E+00
  0.00000000E+00  0.00000000E+00  0.00000000E+00
  0.00000000E+00  0.00000000E+00  0.00000000E+00
  0.00000000E+00  0.00000000E+00  0.00000000E+00
  0.00000000E+00  0.00000000E+00  0.00000000E+00
  0.00000000E+00  0.00000000E+00  0.00000000E+00
  0.00000000E+00  0.00000000E+00  0.00000000E+00
  0.00000000E+00  0.00000000E+00  0.00000000E+00
  0.00000000E+00  0.00000000E+00  0.00000000E+00
  0.00000000E+00  0.00000000E+00  0.00000000E+00
  0.00000000E+00  0.00000000E+00  0.00000000E+00
  0.00000000E+00  0.00000000E+00  0.00000000E+00
  0.00000000E+00  0.00000000E+00  0.00000000E+00
  0.00000000E+00  0.00000000E+00  0.00000000E+00
  0.00000000E+00  0.00000000E+00  0.00000000E+00
  0.00000000E+00  0.00000000E+00  0.00000000E+00
  0.00000000E+00  0.00000000E+00  0.00000000E+00
  0.00000000E+00  0.00000000E+00  0.00000000E+00
  0.00000000E+00  0.00000000E+00  0.00000000E+00
  0.00000000E+00  0.00000000E+00  0.00000000E+00
  0.00000000E+00  0.00000000E+00  0.00000000E+00
  0.00000000E+00  0.00000000E+00  0.00000000E+00
  0.00000000E+00  0.00000000E+00  0.00000000E+00
  0.00000000E+00  0.00000000E+00  0.00000000E+00
  0.00000000E+00  0.00000000E+00  0.00000000E+00
  0.00000000E+00  0.00000000E+00  0.00000000E+00
  0.00000000E+00  0.00000000E+00  0.00000000E+00
  0.00000000E+00  0.00000000E+00  0.00000000E+00
  0.00000000E+00  0.00000000E+00  0.00000000E+00
  0.00000000E+00  0.00000000E+00  0.00000000E+00
  0.00000000E+00  0.00000000E+00  0.00000000E+00
  0.00000000E+00  0.00000000E+00  0.00000000E+00
  0.00000000E+00  0.00000000E+00  0.00000000E+00
  0.00000000E+00  0.00000000E+00  0.00000000E+00
  0.00000000E+00  0.00000000E+00  0.00000000E+00
  0.00000000E+00  0.00000000E+00  0.00000000E+00
  0.00000000E+00  0.00000000E+00  0.00000000E+00
  0.00000000E+00  0.00000000E+00  0.00000000E+00
  0.00000000E+00  0.00000000E+00  0.00000000E+00
  0.00000000E+00  0.00000000E+00  0.00000000E+00
  0.00000000E+00  0.00000000E+00  0.00000000E+00
  0.00000000E+00  0.00000000E+00  0.00000000E+00
  0.00000000E+00  0.00000000E+00  0.00000000E+00
  0.00000000E+00  0.00000000E+00  0.00000000E+00
  0.00000000E+00  0.00000000E+00  0.00000000E+00
  0.00000000E+00  0.00000000E+00  0.00000000E+00
  0.00000000E+00  0.00000000E+00  0.00000000E+00
  0.00000000E+00  0.00000000E+00  0.00000000E+00
  0.00000000E+00  0.00000000E+00  0.00000000E+00
  0.00000000E+00  0.00000000E+00  0.00000000E+00
  0.00000000E+00  0.00000000E+00  0.00000000E+00
  0.00000000E+00  0.00000000E+00  0.00000000E+00
  0.00000000E+00  0.00000000E+00  0.00000000E+00
  0.00000000E+00  0.00000000E+00  0.00000000E+00
  0.00000000E+00  0.00000000E+00  0.00000000E+00
  0.00000000E+00  0.00000000E+00  0.00000000E+00
  0.00000000E+00  0.00000000E+00  0.00000000E+00
  0.00000000E+00  0.00000000E+00  0.00000000E+00
  0.00000000E+00  0.00000000E+00  0.00000000E+00
  0.00000000E+00  0.00000000E+00  0.00000000E+00
  0.00000000E+00  0.00000000E+00  0.00000000E+00
  0.00000000E+00  0.00000000E+00  0.00000000E+00
  0.00000000E+00  0.00000000E+00  0.00000000E+00
  0.00000000E+00  0.00000000E+00  0.00000000E+00
  0.00000000E+00  0.00000000E+00  0.00000000E+00
