Generated by VASPKIT code               
   1.00000000000000     
    11.8284997940000007    0.0000000000000000    0.0000000000000000
     0.0000000000000000   11.8284997940000007    0.0000000000000000
     0.0000000000000000    0.0000000000000000   29.8570995331000013
   Pt
   108
Direct
  0.0345682752945322  0.0000029493980520  0.3342560125397540
  0.0347503190474256  0.3332986361438799  0.3342756202233161
  0.0347508713320011  0.6667000060229711  0.3342743465948814
  0.3679961116499015  0.9999999855197288  0.3343164516874353
  0.3680170239072282  0.3333357042777081  0.3342900089189058
  0.3680168056969322  0.6666636957426135  0.3342905809307766
  0.7013115941506669  0.0000001393240510  0.3343297621486698
  0.7013365773873943  0.3334488028240798  0.3342750593650550
  0.7013365126617259  0.6665506323407513  0.3342757274082828
  0.0346974775920117  0.9999989708974795  0.4665052400239418
  0.0346761503150717  0.3332635819138616  0.4665274458095894
  0.0346761874336678  0.6667364904201847  0.4665277280533928
  0.3682107776290025  0.0000019138772629  0.4665082818002091
  0.3679545753210434  0.3333520967937460  0.4665059219726828
  0.3679534639907303  0.6666491652294297  0.4665056683228030
  0.7012534024161354  0.0000014876654220  0.4665351692604673
  0.7014389453293006  0.3332709417009880  0.4664905596730478
  0.7014379560284141  0.6667252918291524  0.4664913694460751
  0.0346169419481157  0.9999996742599535  0.6003634741668833
  0.0346907949876822  0.3333420646686704  0.6003888390306784
  0.0346979599654205  0.6666581512159198  0.6003908668176905
  0.3679827274939527  0.0000003898054501  0.6003335555463067
  0.3680242090577366  0.3333560994725602  0.6003815470068972
  0.3680251864414998  0.6666421659558850  0.6003805782180294
  0.7012643766699398  0.0000011267307300  0.6002989378919850
  0.7013017223238975  0.3333663365740449  0.6003722432741654
  0.7013027321288803  0.6666310351883240  0.6003706226630356
  0.2013321386805771  0.1665465726105282  0.3342745669198663
  0.2013073845383317  0.5000004117043488  0.3343229190450216
  0.2013315563515974  0.8334529104554278  0.3342742009763668
  0.5347544789472281  0.1666950995919763  0.3342753873504165
  0.5345776567301357  0.4999996852662321  0.3342530658995173
  0.5347541463778640  0.8333056137522945  0.3342767047907529
  0.8680139138312910  0.1666594932291474  0.3342958145576702
  0.8679922251713705  0.4999999917159244  0.3343160812522754
  0.8680145920859346  0.8333405088561818  0.3342954838256631
  0.2014291571835969  0.1667261310084029  0.4664902843946592
  0.2012441473354869  0.5000006999521531  0.4665359895804286
  0.2014283700101416  0.8332738213443704  0.4664904857872614
  0.5346821716860148  0.1667339594108341  0.4665279243932829
  0.5347121906532522  0.4999993783680452  0.4665063256460087
  0.5346819831570926  0.8332694662119806  0.4665274521443976
  0.8679527271062994  0.1666492526377468  0.4665041247477859
  0.8682045011260300  0.5000011324954770  0.4665082739846866
  0.8679531794671718  0.8333506962203430  0.4665041933829883
  0.2013011605135304  0.1666256456963637  0.6003707267436695
  0.2012660739835965  0.4999967379814976  0.6002965372513458
  0.2013024521658053  0.8333779878547318  0.6003707742744950
  0.5346983435097101  0.1666512203358437  0.6003919715166504
  0.5346225989231002  0.5000006804305954  0.6003620465542241
  0.5346942306462594  0.8333468175498453  0.6003907392160954
  0.8680180831379900  0.1666406131942111  0.6003824195350163
  0.8679779667315017  0.5000009026253593  0.6003356379093603
  0.8680206261959498  0.8333599983086870  0.6003812488245259
  0.0347016033932874  0.1666580435789058  0.3996099364832943
  0.0346157644792413  0.4999991707339007  0.3996418232090235
  0.0346985260966974  0.8333401014085666  0.3996097756262813
  0.3680226417169621  0.1666426397996261  0.3996186421740902
  0.3679782852244529  0.5000029842830713  0.3996685421674755
  0.3680209611133520  0.8333562470087159  0.3996176542367706
  0.7013075349928997  0.1666314151289043  0.3996343417100121
  0.7012726305506334  0.5000025511927433  0.3997027359559056
  0.7013079942863740  0.8333683219140724  0.3996335228635672
  0.0346744693162080  0.1667344718710595  0.5334620116732793
  0.0346953132942289  0.5000020712496323  0.5334838951225720
  0.0346737515668849  0.8332638228586546  0.5334624319772985
  0.3679540634195178  0.1666454373198434  0.5334853738947345
  0.3682100330698290  0.5000007751555700  0.5334844586173446
  0.3679512847840769  0.8333572458972256  0.5334837423490768
  0.7014340500811542  0.1667251453086536  0.5335014357640944
  0.7012489459708249  0.5000060309938448  0.5334574181829339
  0.7014346533676914  0.8332744838324047  0.5335014511651082
  0.0347471670931156  0.1666969605788182  0.6657418469102936
  0.0345786193345035  0.5000004350555969  0.6657626976670130
  0.0347461674813729  0.8333024186042266  0.6657415590591640
  0.3680110747278604  0.1666636028464339  0.6657285356609464
  0.3679935937246555  0.5000006285020930  0.6657028365291566
  0.3680113609943092  0.8333357752772628  0.6657269359063420
  0.7013314173816596  0.1665470599920340  0.6657377227559564
  0.7013058467289142  0.5000000090633350  0.6656923784941426
  0.7013319586469962  0.8334492095001522  0.6657375752104784
  0.2012694655923326  0.9999965703353269  0.3997018724255099
  0.2013050674815986  0.3333720119481214  0.3996305141927721
  0.2013045687801878  0.6666312123664895  0.3996292081298733
  0.5346152657872381  0.9999996669405391  0.3996443029927264
  0.5347001973524002  0.3333446275946486  0.3996092980368573
  0.5346993503032849  0.6666588415228460  0.3996091520851550
  0.8679839218248091  0.9999969820815622  0.3996723547856575
  0.8680264880040909  0.3333605694779322  0.3996193596513251
  0.8680276803827240  0.6666422668448462  0.3996181643519847
  0.2012424915430771  0.9999986648835062  0.5334567681738847
  0.2014244814850912  0.3332679358205439  0.5335005436538367
  0.2014246354547851  0.6667283616265181  0.5334986386219640
  0.5347131074583515  0.0000012191624919  0.5334835438616139
  0.5346832990526451  0.3332605199808256  0.5334626518130463
  0.5346829034851908  0.6667394094394510  0.5334623152688209
  0.8682032535634505  0.9999980253657554  0.5334851207295799
  0.8679447719975357  0.3333492805401974  0.5334850664092343
  0.8679484362853884  0.6666499662066130  0.5334860781656730
  0.2013005728680284  0.9999991387601810  0.6656946041158776
  0.2013251053854361  0.3334508278833468  0.6657387551610228
  0.2013311741112958  0.6665473008982161  0.6657403515489193
  0.5345861127498068  0.9999990484985020  0.6657640348395049
  0.5347518930454953  0.3333007070318317  0.6657439255782691
  0.5347534305971564  0.6666984290321736  0.6657414950514990
  0.8679916602717057  0.9999982840046684  0.6657004996257783
  0.8680119614854789  0.3333346410003699  0.6657253822542160
  0.8680118503664005  0.6666654671957417  0.6657230318097547
 
  0.00000000E+00  0.00000000E+00  0.00000000E+00
  0.00000000E+00  0.00000000E+00  0.00000000E+00
  0.00000000E+00  0.00000000E+00  0.00000000E+00
  0.00000000E+00  0.00000000E+00  0.00000000E+00
  0.00000000E+00  0.00000000E+00  0.00000000E+00
  0.00000000E+00  0.00000000E+00  0.00000000E+00
  0.00000000E+00  0.00000000E+00  0.00000000E+00
  0.00000000E+00  0.00000000E+00  0.00000000E+00
  0.00000000E+00  0.00000000E+00  0.00000000E+00
  0.00000000E+00  0.00000000E+00  0.00000000E+00
  0.00000000E+00  0.00000000E+00  0.00000000E+00
  0.00000000E+00  0.00000000E+00  0.00000000E+00
  0.00000000E+00  0.00000000E+00  0.00000000E+00
  0.00000000E+00  0.00000000E+00  0.00000000E+00
  0.00000000E+00  0.00000000E+00  0.00000000E+00
  0.00000000E+00  0.00000000E+00  0.00000000E+00
  0.00000000E+00  0.00000000E+00  0.00000000E+00
  0.00000000E+00  0.00000000E+00  0.00000000E+00
  0.00000000E+00  0.00000000E+00  0.00000000E+00
  0.00000000E+00  0.00000000E+00  0.00000000E+00
  0.00000000E+00  0.00000000E+00  0.00000000E+00
  0.00000000E+00  0.00000000E+00  0.00000000E+00
  0.00000000E+00  0.00000000E+00  0.00000000E+00
  0.00000000E+00  0.00000000E+00  0.00000000E+00
  0.00000000E+00  0.00000000E+00  0.00000000E+00
  0.00000000E+00  0.00000000E+00  0.00000000E+00
  0.00000000E+00  0.00000000E+00  0.00000000E+00
  0.00000000E+00  0.00000000E+00  0.00000000E+00
  0.00000000E+00  0.00000000E+00  0.00000000E+00
  0.00000000E+00  0.00000000E+00  0.00000000E+00
  0.00000000E+00  0.00000000E+00  0.00000000E+00
  0.00000000E+00  0.00000000E+00  0.00000000E+00
  0.00000000E+00  0.00000000E+00  0.00000000E+00
  0.00000000E+00  0.00000000E+00  0.00000000E+00
  0.00000000E+00  0.00000000E+00  0.00000000E+00
  0.00000000E+00  0.00000000E+00  0.00000000E+00
  0.00000000E+00  0.00000000E+00  0.00000000E+00
  0.00000000E+00  0.00000000E+00  0.00000000E+00
  0.00000000E+00  0.00000000E+00  0.00000000E+00
  0.00000000E+00  0.00000000E+00  0.00000000E+00
  0.00000000E+00  0.00000000E+00  0.00000000E+00
  0.00000000E+00  0.00000000E+00  0.00000000E+00
  0.00000000E+00  0.00000000E+00  0.00000000E+00
  0.00000000E+00  0.00000000E+00  0.00000000E+00
  0.00000000E+00  0.00000000E+00  0.00000000E+00
  0.00000000E+00  0.00000000E+00  0.00000000E+00
  0.00000000E+00  0.00000000E+00  0.00000000E+00
  0.00000000E+00  0.00000000E+00  0.00000000E+00
  0.00000000E+00  0.00000000E+00  0.00000000E+00
  0.00000000E+00  0.00000000E+00  0.00000000E+00
  0.00000000E+00  0.00000000E+00  0.00000000E+00
  0.00000000E+00  0.00000000E+00  0.00000000E+00
  0.00000000E+00  0.00000000E+00  0.00000000E+00
  0.00000000E+00  0.00000000E+00  0.00000000E+00
  0.00000000E+00  0.00000000E+00  0.00000000E+00
  0.00000000E+00  0.00000000E+00  0.00000000E+00
  0.00000000E+00  0.00000000E+00  0.00000000E+00
  0.00000000E+00  0.00000000E+00  0.00000000E+00
  0.00000000E+00  0.00000000E+00  0.00000000E+00
  0.00000000E+00  0.00000000E+00  0.00000000E+00
  0.00000000E+00  0.00000000E+00  0.00000000E+00
  0.00000000E+00  0.00000000E+00  0.00000000E+00
  0.00000000E+00  0.00000000E+00  0.00000000E+00
  0.00000000E+00  0.00000000E+00  0.00000000E+00
  0.00000000E+00  0.00000000E+00  0.00000000E+00
  0.00000000E+00  0.00000000E+00  0.00000000E+00
  0.00000000E+00  0.00000000E+00  0.00000000E+00
  0.00000000E+00  0.00000000E+00  0.00000000E+00
  0.00000000E+00  0.00000000E+00  0.00000000E+00
  0.00000000E+00  0.00000000E+00  0.00000000E+00
  0.00000000E+00  0.00000000E+00  0.00000000E+00
  0.00000000E+00  0.00000000E+00  0.00000000E+00
  0.00000000E+00  0.00000000E+00  0.00000000E+00
  0.00000000E+00  0.00000000E+00  0.00000000E+00
  0.00000000E+00  0.00000000E+00  0.00000000E+00
  0.00000000E+00  0.00000000E+00  0.00000000E+00
  0.00000000E+00  0.00000000E+00  0.00000000E+00
  0.00000000E+00  0.00000000E+00  0.00000000E+00
  0.00000000E+00  0.00000000E+00  0.00000000E+00
  0.00000000E+00  0.00000000E+00  0.00000000E+00
  0.00000000E+00  0.00000000E+00  0.00000000E+00
  0.00000000E+00  0.00000000E+00  0.00000000E+00
  0.00000000E+00  0.00000000E+00  0.00000000E+00
  0.00000000E+00  0.00000000E+00  0.00000000E+00
  0.00000000E+00  0.00000000E+00  0.00000000E+00
  0.00000000E+00  0.00000000E+00  0.00000000E+00
  0.00000000E+00  0.00000000E+00  0.00000000E+00
  0.00000000E+00  0.00000000E+00  0.00000000E+00
  0.00000000E+00  0.00000000E+00  0.00000000E+00
  0.00000000E+00  0.00000000E+00  0.00000000E+00
  0.00000000E+00  0.00000000E+00  0.00000000E+00
  0.00000000E+00  0.00000000E+00  0.00000000E+00
  0.00000000E+00  0.00000000E+00  0.00000000E+00
  0.00000000E+00  0.00000000E+00  0.00000000E+00
  0.00000000E+00  0.00000000E+00  0.00000000E+00
  0.00000000E+00  0.00000000E+00  0.00000000E+00
  0.00000000E+00  0.00000000E+00  0.00000000E+00
  0.00000000E+00  0.00000000E+00  0.00000000E+00
  0.00000000E+00  0.00000000E+00  0.00000000E+00
  0.00000000E+00  0.00000000E+00  0.00000000E+00
  0.00000000E+00  0.00000000E+00  0.00000000E+00
  0.00000000E+00  0.00000000E+00  0.00000000E+00
  0.00000000E+00  0.00000000E+00  0.00000000E+00
  0.00000000E+00  0.00000000E+00  0.00000000E+00
  0.00000000E+00  0.00000000E+00  0.00000000E+00
  0.00000000E+00  0.00000000E+00  0.00000000E+00
  0.00000000E+00  0.00000000E+00  0.00000000E+00
  0.00000000E+00  0.00000000E+00  0.00000000E+00
