H2 Ir108 O2                             
    1.000000000000000     
    11.8285000000000000    0.0000000000000000    0.0000000000000000
     0.0000000000000000   11.8285000000000000    0.0000000000000000
     0.0000000000000000    0.0000000000000000   29.8570999999999991
   H    Ir   O 
     2   108     2
Direct
  0.3363206346114396  0.3015523251872381  0.7241586479771911
  0.5653285057301076  0.6972614605847127  0.2760356167326350
  0.0348009581182396  0.9999423483018575  0.3435810944367290
  0.0340760743183353  0.3341862928085817  0.3432467167745727
  0.0353907641049389  0.6669090209641766  0.3434894604240810
  0.3674963421236725  0.0005941951657107  0.3433678810596419
  0.3685126810521808  0.3335777695640161  0.3435216174152345
  0.3659671665345456  0.6652583350132701  0.3435132632994353
  0.7028295090387502  0.0026812975379897  0.3435111834477311
  0.7012835916990454  0.3329007000526687  0.3435436873482587
  0.7055326347833386  0.6615292215753499  0.3406757729306307
  0.0349431958328097  0.0002653750182375  0.4679497764313467
  0.0347652245609567  0.3335826617270357  0.4680940914528975
  0.0348436063661524  0.6662664108587038  0.4679948879847728
  0.3684171107107801  0.9998951654199359  0.4679506223614780
  0.3677173560091589  0.3331558714481559  0.4680462269084131
  0.3685414213191365  0.6666798870207771  0.4676771100581476
  0.7007734459217190  0.9994811919983775  0.4674928150421280
  0.7012853249474063  0.3333751078896299  0.4680880953374498
  0.7012855581308202  0.6669008876300069  0.4674286609488405
  0.0340582812625527  0.9993008252472890  0.5962192536530964
  0.0359820846097492  0.3324359803957506  0.5971543939426596
  0.0342201664773327  0.6669812859719215  0.5963831254703322
  0.3672927116368072  0.0011816111636946  0.5970250149825560
  0.3681710423462619  0.3333433549455478  0.5971284209360306
  0.3677632581561312  0.6674980452569059  0.5959052097149851
  0.7013907579215797  0.9996938560317545  0.5962430392205675
  0.7017741921946197  0.3330745119713754  0.5959794517731538
  0.7018523292342991  0.6672005322831680  0.5966847946048404
  0.2020803622690082  0.1657410461271525  0.3432823367766673
  0.2014107887426704  0.5002196994418071  0.3435255071835712
  0.2006578910935630  0.8333014125785994  0.3435338468212805
  0.5347506936257176  0.1674555650427010  0.3435101486723724
  0.5331480939726347  0.4979805698386102  0.3436263831221211
  0.5295540833301970  0.8377171130253203  0.3406687137960986
  0.8677590120852940  0.1667667383064497  0.3434863604537099
  0.8683488219956388  0.4994338048261255  0.3433566126876286
  0.8706421429499827  0.8351802769487193  0.3434686529710191
  0.2016635719270639  0.1668039918814728  0.4680679000430104
  0.2011342084583703  0.4996453649948123  0.4680324451296585
  0.2010735707404123  0.8339812309434222  0.4680679704023873
  0.5342822301047008  0.1667480727258734  0.4681553348006204
  0.5350363166586121  0.5004449320521616  0.4675861751687194
  0.5349265418008429  0.8334253030579362  0.4675099831562903
  0.8684957331155587  0.1665723842637021  0.4680359420797799
  0.8679534104006308  0.5004128620116077  0.4677629761593707
  0.8674801200133118  0.8330039895315480  0.4674699066569943
  0.2010048069697419  0.1664888399697517  0.5973845373966782
  0.2019670309080794  0.4988309314254948  0.5969500461392343
  0.2016961265223500  0.8324604787535606  0.5959834416519456
  0.5338253797297838  0.1672536135126137  0.5969818446568027
  0.5352189518479875  0.5004471276997720  0.5961880484659616
  0.5350095904922583  0.8332794847511025  0.5964578567324708
  0.8675510028527427  0.1670642044740163  0.5960089072803001
  0.8680446032513487  0.5002007209517600  0.5964027593635564
  0.8676183431144509  0.8326383418747128  0.5965217054607308
  0.0351798746537852  0.1672892890274582  0.4034771172026623
  0.0345214403836565  0.4998436184538662  0.4035429189651865
  0.0352782518390953  0.8330620859614726  0.4040022475888989
  0.3678223749595730  0.1667664023363145  0.4035777903950972
  0.3673540203596133  0.4996374809341546  0.4038819847651069
  0.3689333596420141  0.8328851584352392  0.4030237506217986
  0.7009748717036572  0.1675378797199372  0.4039951344024786
  0.7008241879085446  0.5012190781657964  0.4030675017530072
  0.7016817600607652  0.8335636085960303  0.4026276392703849
  0.0351953233394795  0.1670825633467814  0.5325154830015322
  0.0348696010692322  0.4996624889921435  0.5322585408230509
  0.0342075357436826  0.8334127357966565  0.5319427395696437
  0.3677337351436591  0.1665781917105917  0.5325218377482770
  0.3677419292721567  0.4996102695726705  0.5324160557746964
  0.3684170036084353  0.8333062842697103  0.5318697083967479
  0.7017389637504934  0.1660078311314450  0.5319291486053785
  0.7015589544664920  0.5003932815749934  0.5319588515734424
  0.7011080939273953  0.8332234521426756  0.5319421026567213
  0.0319787212470430  0.1648643821854208  0.6565666719142556
  0.0343001380725454  0.5005927308220421  0.6565957369378737
  0.0349629041987498  0.8332555744764747  0.6565350032538007
  0.3732577344894850  0.1621617020677348  0.6592811443603139
  0.3695413505422707  0.5020640981756088  0.6564300485679411
  0.3679233347511968  0.8327477272411414  0.6564799741917398
  0.7020523044727227  0.1667332171206297  0.6564762074804094
  0.7014129270955749  0.4997511189311865  0.6564800292901154
  0.7007546958483459  0.8343082169783997  0.6567144100943949
  0.2015020769439602  0.0003423636506525  0.4037492001085496
  0.2008518818288039  0.3328061056693983  0.4033378632480904
  0.2008787915032570  0.6669133558064715  0.4040044400254104
  0.5353347806215893  0.9988050721414936  0.4029381548011273
  0.5350764843131515  0.3326333278888995  0.4041481848846900
  0.5345000994110833  0.6667564090656910  0.4028835887399396
  0.8684669138909484  0.0007605951551284  0.4038041973138746
  0.8685590930295177  0.3330481375930603  0.4036187441042145
  0.8667042050693539  0.6675348186920687  0.4028269386767391
  0.2018421163413606  0.0004947332822951  0.5324996166115099
  0.2014602261716760  0.3331246764236724  0.5325765527703794
  0.2014760253011332  0.6666316341809448  0.5319189458960736
  0.5343987379812845  0.0001349812297917  0.5320964183235120
  0.5341385906777631  0.3333404381483334  0.5323443755901422
  0.5350136946512478  0.6668822532127123  0.5319745076605500
  0.8678781223205689  0.9997514480950613  0.5320004192422445
  0.8678376403988608  0.3337734485258252  0.5319884767023098
  0.8679179282193417  0.6664222387373115  0.5318969990425941
  0.1998269331520248  0.9973256179751999  0.6564492628951086
  0.1969702708027228  0.3386184945772186  0.6593258753257132
  0.2014803615139016  0.6671470854464303  0.6564604728391004
  0.5352256876483423  0.9995106356806644  0.6566062451019690
  0.5367069955455790  0.3347237418151323  0.6565064902883080
  0.5342863921106513  0.6665180440237179  0.6565373890169894
  0.8678007621386570  0.0001068764500403  0.6564432043538702
  0.8673001880264550  0.3331713061749966  0.6565018696520184
  0.8687542758019688  0.6657297015058603  0.6567378164065687
  0.2831587378734497  0.2486979359369883  0.7101432986337031
  0.6187792354359090  0.7505314247037518  0.2896403966409480
 
  0.00000000E+00  0.00000000E+00  0.00000000E+00
  0.00000000E+00  0.00000000E+00  0.00000000E+00
  0.00000000E+00  0.00000000E+00  0.00000000E+00
  0.00000000E+00  0.00000000E+00  0.00000000E+00
  0.00000000E+00  0.00000000E+00  0.00000000E+00
  0.00000000E+00  0.00000000E+00  0.00000000E+00
  0.00000000E+00  0.00000000E+00  0.00000000E+00
  0.00000000E+00  0.00000000E+00  0.00000000E+00
  0.00000000E+00  0.00000000E+00  0.00000000E+00
  0.00000000E+00  0.00000000E+00  0.00000000E+00
  0.00000000E+00  0.00000000E+00  0.00000000E+00
  0.00000000E+00  0.00000000E+00  0.00000000E+00
  0.00000000E+00  0.00000000E+00  0.00000000E+00
  0.00000000E+00  0.00000000E+00  0.00000000E+00
  0.00000000E+00  0.00000000E+00  0.00000000E+00
  0.00000000E+00  0.00000000E+00  0.00000000E+00
  0.00000000E+00  0.00000000E+00  0.00000000E+00
  0.00000000E+00  0.00000000E+00  0.00000000E+00
  0.00000000E+00  0.00000000E+00  0.00000000E+00
  0.00000000E+00  0.00000000E+00  0.00000000E+00
  0.00000000E+00  0.00000000E+00  0.00000000E+00
  0.00000000E+00  0.00000000E+00  0.00000000E+00
  0.00000000E+00  0.00000000E+00  0.00000000E+00
  0.00000000E+00  0.00000000E+00  0.00000000E+00
  0.00000000E+00  0.00000000E+00  0.00000000E+00
  0.00000000E+00  0.00000000E+00  0.00000000E+00
  0.00000000E+00  0.00000000E+00  0.00000000E+00
  0.00000000E+00  0.00000000E+00  0.00000000E+00
  0.00000000E+00  0.00000000E+00  0.00000000E+00
  0.00000000E+00  0.00000000E+00  0.00000000E+00
  0.00000000E+00  0.00000000E+00  0.00000000E+00
  0.00000000E+00  0.00000000E+00  0.00000000E+00
  0.00000000E+00  0.00000000E+00  0.00000000E+00
  0.00000000E+00  0.00000000E+00  0.00000000E+00
  0.00000000E+00  0.00000000E+00  0.00000000E+00
  0.00000000E+00  0.00000000E+00  0.00000000E+00
  0.00000000E+00  0.00000000E+00  0.00000000E+00
  0.00000000E+00  0.00000000E+00  0.00000000E+00
  0.00000000E+00  0.00000000E+00  0.00000000E+00
  0.00000000E+00  0.00000000E+00  0.00000000E+00
  0.00000000E+00  0.00000000E+00  0.00000000E+00
  0.00000000E+00  0.00000000E+00  0.00000000E+00
  0.00000000E+00  0.00000000E+00  0.00000000E+00
  0.00000000E+00  0.00000000E+00  0.00000000E+00
  0.00000000E+00  0.00000000E+00  0.00000000E+00
  0.00000000E+00  0.00000000E+00  0.00000000E+00
  0.00000000E+00  0.00000000E+00  0.00000000E+00
  0.00000000E+00  0.00000000E+00  0.00000000E+00
  0.00000000E+00  0.00000000E+00  0.00000000E+00
  0.00000000E+00  0.00000000E+00  0.00000000E+00
  0.00000000E+00  0.00000000E+00  0.00000000E+00
  0.00000000E+00  0.00000000E+00  0.00000000E+00
  0.00000000E+00  0.00000000E+00  0.00000000E+00
  0.00000000E+00  0.00000000E+00  0.00000000E+00
  0.00000000E+00  0.00000000E+00  0.00000000E+00
  0.00000000E+00  0.00000000E+00  0.00000000E+00
  0.00000000E+00  0.00000000E+00  0.00000000E+00
  0.00000000E+00  0.00000000E+00  0.00000000E+00
  0.00000000E+00  0.00000000E+00  0.00000000E+00
  0.00000000E+00  0.00000000E+00  0.00000000E+00
  0.00000000E+00  0.00000000E+00  0.00000000E+00
  0.00000000E+00  0.00000000E+00  0.00000000E+00
  0.00000000E+00  0.00000000E+00  0.00000000E+00
  0.00000000E+00  0.00000000E+00  0.00000000E+00
  0.00000000E+00  0.00000000E+00  0.00000000E+00
  0.00000000E+00  0.00000000E+00  0.00000000E+00
  0.00000000E+00  0.00000000E+00  0.00000000E+00
  0.00000000E+00  0.00000000E+00  0.00000000E+00
  0.00000000E+00  0.00000000E+00  0.00000000E+00
  0.00000000E+00  0.00000000E+00  0.00000000E+00
  0.00000000E+00  0.00000000E+00  0.00000000E+00
  0.00000000E+00  0.00000000E+00  0.00000000E+00
  0.00000000E+00  0.00000000E+00  0.00000000E+00
  0.00000000E+00  0.00000000E+00  0.00000000E+00
  0.00000000E+00  0.00000000E+00  0.00000000E+00
  0.00000000E+00  0.00000000E+00  0.00000000E+00
  0.00000000E+00  0.00000000E+00  0.00000000E+00
  0.00000000E+00  0.00000000E+00  0.00000000E+00
  0.00000000E+00  0.00000000E+00  0.00000000E+00
  0.00000000E+00  0.00000000E+00  0.00000000E+00
  0.00000000E+00  0.00000000E+00  0.00000000E+00
  0.00000000E+00  0.00000000E+00  0.00000000E+00
  0.00000000E+00  0.00000000E+00  0.00000000E+00
  0.00000000E+00  0.00000000E+00  0.00000000E+00
  0.00000000E+00  0.00000000E+00  0.00000000E+00
  0.00000000E+00  0.00000000E+00  0.00000000E+00
  0.00000000E+00  0.00000000E+00  0.00000000E+00
  0.00000000E+00  0.00000000E+00  0.00000000E+00
  0.00000000E+00  0.00000000E+00  0.00000000E+00
  0.00000000E+00  0.00000000E+00  0.00000000E+00
  0.00000000E+00  0.00000000E+00  0.00000000E+00
  0.00000000E+00  0.00000000E+00  0.00000000E+00
  0.00000000E+00  0.00000000E+00  0.00000000E+00
  0.00000000E+00  0.00000000E+00  0.00000000E+00
  0.00000000E+00  0.00000000E+00  0.00000000E+00
  0.00000000E+00  0.00000000E+00  0.00000000E+00
  0.00000000E+00  0.00000000E+00  0.00000000E+00
  0.00000000E+00  0.00000000E+00  0.00000000E+00
  0.00000000E+00  0.00000000E+00  0.00000000E+00
  0.00000000E+00  0.00000000E+00  0.00000000E+00
  0.00000000E+00  0.00000000E+00  0.00000000E+00
  0.00000000E+00  0.00000000E+00  0.00000000E+00
  0.00000000E+00  0.00000000E+00  0.00000000E+00
  0.00000000E+00  0.00000000E+00  0.00000000E+00
  0.00000000E+00  0.00000000E+00  0.00000000E+00
  0.00000000E+00  0.00000000E+00  0.00000000E+00
  0.00000000E+00  0.00000000E+00  0.00000000E+00
  0.00000000E+00  0.00000000E+00  0.00000000E+00
  0.00000000E+00  0.00000000E+00  0.00000000E+00
  0.00000000E+00  0.00000000E+00  0.00000000E+00
  0.00000000E+00  0.00000000E+00  0.00000000E+00
  0.00000000E+00  0.00000000E+00  0.00000000E+00
