H2 Pt108 O2                             
    1.000000000000000     
    11.8285000000000000    0.0000000000000000    0.0000000000000000
     0.0000000000000000   11.8285000000000000    0.0000000000000000
     0.0000000000000000    0.0000000000000000   29.8570999999999991
   H    Pt   O 
     2   108     2
Direct
  0.1733719212288999  0.8616487070374190  0.7305492303145225
  0.7281712153144773  0.1391377006709781  0.2695000889834453
  0.0371929490136703 -0.0018329733337116  0.3347362898100639
  0.0373607997505276  0.3361278656369971  0.3337951179989370
  0.0344901058667227  0.6661273351229043  0.3348566806625018
  0.3669896541564345  0.0006801173984844  0.3345601993981591
  0.3678405559297584  0.3329266847776952  0.3350090144676978
  0.3678257813176806  0.6657647673098824  0.3346636633840173
  0.6930553739726326 -0.0083652980692989  0.3296950058686962
  0.6998170440449594  0.3354404189484736  0.3345497470851154
  0.7016588386467019  0.6656324379278987  0.3346066634507753
  0.0339187219566670  0.0003427155056957  0.4665429393184479
  0.0338058303097525  0.3318275419961763  0.4659016116785143
  0.0346895704943271  0.6672345374058005  0.4668748165405194
  0.3680427105753014 -0.0002203940760843  0.4668977473066895
  0.3677705735974010  0.3325960182615202  0.4668797642431111
  0.3682340846972825  0.6670928511159535  0.4665430881090368
  0.7025029830192595  0.0006055168331894  0.4655486866483322
  0.7017935498030023  0.3323445495880576  0.4666074854298602
  0.7015923328301671  0.6677694616911865  0.4669010192075499
  0.0359170201098820 -0.0009357160369319  0.6023644165955310
  0.0352119108944617  0.3334426617206216  0.5994053815918978
  0.0351503815518365  0.6679986618036007  0.6011170039043492
  0.3667181633102580 -0.0003779345741347  0.6011188031909442
  0.3676129086056710  0.3332649735810072  0.5999950974901436
  0.3677272271444532  0.6671317417278688  0.5996364988266738
  0.7014011120939019 -0.0005309722233596  0.5994115352771905
  0.7014469358326718  0.3333920584922385  0.6001725699779996
  0.7016194602868795  0.6671327738117213  0.6000203955706742
  0.2022956766095782  0.1661952566819873  0.3345429674831639
  0.2016355520873321  0.5001646597506553  0.3347448345265621
  0.2014411146199456  0.8335046331903994  0.3349362930470540
  0.5324229041465016  0.1680521347105717  0.3346466964568156
  0.5350709635480591  0.4999292746045537  0.3349282432169259
  0.5316174346286393  0.8305547371965739  0.3338121329294357
  0.8760836567289009  0.1744307937092497  0.3295925980669854
  0.8672359811347617  0.5008707768839114  0.3345937922244345
  0.8695905501917358  0.8305093578044280  0.3347616354111967
  0.2004530509399615  0.1660772862540721  0.4669213529718123
  0.2009021517815620  0.5001497133377952  0.4664659381160527
  0.2012766720120972  0.8336003533924082  0.4668126461320792
  0.5351862624627498  0.1658682997013123  0.4666460224962597
  0.5349697199628446  0.4998850471894590  0.4668719661721886
  0.5353026745783810  0.8346258615172241  0.4658574938726872
  0.8673041574572206  0.1656021620598777  0.4655601192318640
  0.8683977725261713  0.4997759735412228  0.4668652396612560
  0.8681496237362490  0.8342415575647022  0.4665993208641213
  0.2013280930985306  0.1649624324043732  0.6013052087252392
  0.2009613912739004  0.4999265483257948  0.5992592137675116
  0.2002566983522908  0.8344923387716555  0.6021130347871265
  0.5346806154034095  0.1662505999012342  0.6002354374369584
  0.5344959377668878  0.5002664369693608  0.5999124729530046
  0.5349749576760980  0.8338324067921354  0.5993787988092095
  0.8684327246562374  0.1664683431765108  0.5997140949090429
  0.8685105883667824  0.5002616323043843  0.5999725218813231
  0.8699269584385446  0.8336501371599815  0.6014858148541076
  0.0326577023922237  0.1663072247597691  0.3984819864374312
  0.0341474124953012  0.4996727837229040  0.3999739909563071
  0.0343937269025161  0.8334759207696848  0.4003507228657244
  0.3677162024966124  0.1661124838614045  0.4006585573807146
  0.3682313301128624  0.4997311912284111  0.4001475982844509
  0.3681589139227588  0.8336662797227405  0.3997742708755613
  0.7024450926880951  0.1655302071971059  0.3978632148106525
  0.7016868624788953  0.5000455794698823  0.4007267081420232
  0.7014673518451343  0.8351818866886215  0.3986606400860420
  0.0345993176418255  0.1657401499285824  0.5334015809529170
  0.0344423470544077  0.5001581306523836  0.5331272134011075
  0.0354369396533899  0.8343622873643305  0.5344353828360804
  0.3674572399593228  0.1653547961388485  0.5341636534574563
  0.3678838584600778  0.5000534796104678  0.5331368383193341
  0.3676470163333948  0.8340446390612315  0.5333981690825486
  0.7016852201511763  0.1663738599337514  0.5332252386465306
  0.7017736232172166  0.4997876342172053  0.5335467398807333
  0.7024150392190032  0.8338695880584457  0.5330805621417473
  0.0332713983455621  0.1694827407717738  0.6653158937485784
  0.0353173686372255  0.4991490858642597  0.6653872167856957
  0.0263504167175170  0.8254240280560402  0.6703075008930102
  0.3711272743107630  0.1694829377567755  0.6661741330115170
  0.3676064977122094  0.5000812442594735  0.6650591269779794
  0.3701754704697781  0.8320355933866427  0.6653815320772757
  0.7012930996801791  0.1664698020670004  0.6651073830899974
  0.7009302578804621  0.4998038602453668  0.6652842367318781
  0.7003546828819599  0.8337986362678637  0.6654660338314330
  0.2013223347877377  0.0004995387977212  0.4006151642910524
  0.2010341186044153  0.3328096677015707  0.3999756583730562
  0.2013063072227720  0.6665655128453012  0.3998605968750703
  0.5359532486553841  0.0003859663829166  0.3988982045605521
  0.5349992263565014  0.3328255833501503  0.4003801320123149
  0.5352327896846000  0.6667709103047862  0.4000098420657835
  0.8667762731809914  0.0009655538582280  0.3976618570850743
  0.8674956433492557  0.3320215110515947  0.3988737232652508
  0.8674691241671294  0.6665221509608856  0.4006228532741074
  0.2002322420531335  0.9993681632253770  0.5344553549401704
  0.2011986155813574  0.3322041458498982  0.5330922624953220
  0.2010064349693219  0.6676294916859782  0.5334194678000835
  0.5348804336999911  0.0001187359679309  0.5331486828698921
  0.5345601510285679  0.3328106031579975  0.5334925873812256
  0.5350252147858700  0.6672841354368148  0.5331223226419933
  0.8689295306998632  0.9996677644916729  0.5334532114165448
  0.8681370167953318  0.3326523023898927  0.5331138901551230
  0.8689893101252445  0.6681188472379070  0.5340504347825171
  0.2095871969259283  0.0084654071790197  0.6702155217200867
  0.2010341871910210  0.3344242798096695  0.6653902924595180
  0.2028115969904614  0.6645844236520331  0.6653988773579181
  0.5355947941897597  0.9993224843105049  0.6654657958804836
  0.5348811671544974  0.3341373440390049  0.6653640830902486
  0.5347925534305641  0.6671248951199031  0.6650582298740821
  0.8654549320842611  0.0018050449578022  0.6652706193421094
  0.8682629688168619  0.3338380035923856  0.6651696568740869
  0.8652579454463104  0.6637766772194741  0.6661643968962360
  0.1187023895961950  0.9163064633947784  0.7185360603240144
  0.7829659882258333  0.0842497760201444  0.2812696408555369
 
  0.00000000E+00  0.00000000E+00  0.00000000E+00
  0.00000000E+00  0.00000000E+00  0.00000000E+00
  0.00000000E+00  0.00000000E+00  0.00000000E+00
  0.00000000E+00  0.00000000E+00  0.00000000E+00
  0.00000000E+00  0.00000000E+00  0.00000000E+00
  0.00000000E+00  0.00000000E+00  0.00000000E+00
  0.00000000E+00  0.00000000E+00  0.00000000E+00
  0.00000000E+00  0.00000000E+00  0.00000000E+00
  0.00000000E+00  0.00000000E+00  0.00000000E+00
  0.00000000E+00  0.00000000E+00  0.00000000E+00
  0.00000000E+00  0.00000000E+00  0.00000000E+00
  0.00000000E+00  0.00000000E+00  0.00000000E+00
  0.00000000E+00  0.00000000E+00  0.00000000E+00
  0.00000000E+00  0.00000000E+00  0.00000000E+00
  0.00000000E+00  0.00000000E+00  0.00000000E+00
  0.00000000E+00  0.00000000E+00  0.00000000E+00
  0.00000000E+00  0.00000000E+00  0.00000000E+00
  0.00000000E+00  0.00000000E+00  0.00000000E+00
  0.00000000E+00  0.00000000E+00  0.00000000E+00
  0.00000000E+00  0.00000000E+00  0.00000000E+00
  0.00000000E+00  0.00000000E+00  0.00000000E+00
  0.00000000E+00  0.00000000E+00  0.00000000E+00
  0.00000000E+00  0.00000000E+00  0.00000000E+00
  0.00000000E+00  0.00000000E+00  0.00000000E+00
  0.00000000E+00  0.00000000E+00  0.00000000E+00
  0.00000000E+00  0.00000000E+00  0.00000000E+00
  0.00000000E+00  0.00000000E+00  0.00000000E+00
  0.00000000E+00  0.00000000E+00  0.00000000E+00
  0.00000000E+00  0.00000000E+00  0.00000000E+00
  0.00000000E+00  0.00000000E+00  0.00000000E+00
  0.00000000E+00  0.00000000E+00  0.00000000E+00
  0.00000000E+00  0.00000000E+00  0.00000000E+00
  0.00000000E+00  0.00000000E+00  0.00000000E+00
  0.00000000E+00  0.00000000E+00  0.00000000E+00
  0.00000000E+00  0.00000000E+00  0.00000000E+00
  0.00000000E+00  0.00000000E+00  0.00000000E+00
  0.00000000E+00  0.00000000E+00  0.00000000E+00
  0.00000000E+00  0.00000000E+00  0.00000000E+00
  0.00000000E+00  0.00000000E+00  0.00000000E+00
  0.00000000E+00  0.00000000E+00  0.00000000E+00
  0.00000000E+00  0.00000000E+00  0.00000000E+00
  0.00000000E+00  0.00000000E+00  0.00000000E+00
  0.00000000E+00  0.00000000E+00  0.00000000E+00
  0.00000000E+00  0.00000000E+00  0.00000000E+00
  0.00000000E+00  0.00000000E+00  0.00000000E+00
  0.00000000E+00  0.00000000E+00  0.00000000E+00
  0.00000000E+00  0.00000000E+00  0.00000000E+00
  0.00000000E+00  0.00000000E+00  0.00000000E+00
  0.00000000E+00  0.00000000E+00  0.00000000E+00
  0.00000000E+00  0.00000000E+00  0.00000000E+00
  0.00000000E+00  0.00000000E+00  0.00000000E+00
  0.00000000E+00  0.00000000E+00  0.00000000E+00
  0.00000000E+00  0.00000000E+00  0.00000000E+00
  0.00000000E+00  0.00000000E+00  0.00000000E+00
  0.00000000E+00  0.00000000E+00  0.00000000E+00
  0.00000000E+00  0.00000000E+00  0.00000000E+00
  0.00000000E+00  0.00000000E+00  0.00000000E+00
  0.00000000E+00  0.00000000E+00  0.00000000E+00
  0.00000000E+00  0.00000000E+00  0.00000000E+00
  0.00000000E+00  0.00000000E+00  0.00000000E+00
  0.00000000E+00  0.00000000E+00  0.00000000E+00
  0.00000000E+00  0.00000000E+00  0.00000000E+00
  0.00000000E+00  0.00000000E+00  0.00000000E+00
  0.00000000E+00  0.00000000E+00  0.00000000E+00
  0.00000000E+00  0.00000000E+00  0.00000000E+00
  0.00000000E+00  0.00000000E+00  0.00000000E+00
  0.00000000E+00  0.00000000E+00  0.00000000E+00
  0.00000000E+00  0.00000000E+00  0.00000000E+00
  0.00000000E+00  0.00000000E+00  0.00000000E+00
  0.00000000E+00  0.00000000E+00  0.00000000E+00
  0.00000000E+00  0.00000000E+00  0.00000000E+00
  0.00000000E+00  0.00000000E+00  0.00000000E+00
  0.00000000E+00  0.00000000E+00  0.00000000E+00
  0.00000000E+00  0.00000000E+00  0.00000000E+00
  0.00000000E+00  0.00000000E+00  0.00000000E+00
  0.00000000E+00  0.00000000E+00  0.00000000E+00
  0.00000000E+00  0.00000000E+00  0.00000000E+00
  0.00000000E+00  0.00000000E+00  0.00000000E+00
  0.00000000E+00  0.00000000E+00  0.00000000E+00
  0.00000000E+00  0.00000000E+00  0.00000000E+00
  0.00000000E+00  0.00000000E+00  0.00000000E+00
  0.00000000E+00  0.00000000E+00  0.00000000E+00
  0.00000000E+00  0.00000000E+00  0.00000000E+00
  0.00000000E+00  0.00000000E+00  0.00000000E+00
  0.00000000E+00  0.00000000E+00  0.00000000E+00
  0.00000000E+00  0.00000000E+00  0.00000000E+00
  0.00000000E+00  0.00000000E+00  0.00000000E+00
  0.00000000E+00  0.00000000E+00  0.00000000E+00
  0.00000000E+00  0.00000000E+00  0.00000000E+00
  0.00000000E+00  0.00000000E+00  0.00000000E+00
  0.00000000E+00  0.00000000E+00  0.00000000E+00
  0.00000000E+00  0.00000000E+00  0.00000000E+00
  0.00000000E+00  0.00000000E+00  0.00000000E+00
  0.00000000E+00  0.00000000E+00  0.00000000E+00
  0.00000000E+00  0.00000000E+00  0.00000000E+00
  0.00000000E+00  0.00000000E+00  0.00000000E+00
  0.00000000E+00  0.00000000E+00  0.00000000E+00
  0.00000000E+00  0.00000000E+00  0.00000000E+00
  0.00000000E+00  0.00000000E+00  0.00000000E+00
  0.00000000E+00  0.00000000E+00  0.00000000E+00
  0.00000000E+00  0.00000000E+00  0.00000000E+00
  0.00000000E+00  0.00000000E+00  0.00000000E+00
  0.00000000E+00  0.00000000E+00  0.00000000E+00
  0.00000000E+00  0.00000000E+00  0.00000000E+00
  0.00000000E+00  0.00000000E+00  0.00000000E+00
  0.00000000E+00  0.00000000E+00  0.00000000E+00
  0.00000000E+00  0.00000000E+00  0.00000000E+00
  0.00000000E+00  0.00000000E+00  0.00000000E+00
  0.00000000E+00  0.00000000E+00  0.00000000E+00
  0.00000000E+00  0.00000000E+00  0.00000000E+00
  0.00000000E+00  0.00000000E+00  0.00000000E+00
  0.00000000E+00  0.00000000E+00  0.00000000E+00
