H2 Au108 O2                             
    1.000000000000000     
    11.8285000000000000    0.0000000000000000    0.0000000000000000
     0.0000000000000000   11.8285000000000000    0.0000000000000000
     0.0000000000000000    0.0000000000000000   29.8570999999999991
   H    Au   O 
     2   108     2
Direct
  0.5018661338489734  0.5376616884476193  0.7589461092418944
  0.4011243103276956  0.4590640871777751  0.2410371442502877
  0.0295689548920158  0.9929442799902038  0.3124894853641928
  0.0351800679254298  0.3329342460021372  0.3111283188637218
  0.0327833098353028  0.6672409722740760  0.3125154038336608
  0.3674204141793022  0.9978150588085793  0.3121692372253135
  0.3546046472448137  0.3213888434504573  0.3091456507788535
  0.3670208659043267  0.6697780355395880  0.3118825425153725
  0.7037282143738958 -0.0013109756670187  0.3127652096923616
  0.7044510295024575  0.3291039130687636  0.3128377971532521
  0.7023297053042012  0.6674079202798462  0.3125131418911536
  0.0341740160359070 -0.0009689037657328  0.4625195289322547
  0.0357064007237970  0.3342635306129790  0.4618329426578308
  0.0356735673857237  0.6641041410809043  0.4629982032671701
  0.3678278963105440  0.0004427262861674  0.4622373897585706
  0.3690624849781914  0.3318044762985432  0.4614220782044847
  0.3684908594651085  0.6657819688169928  0.4623536962213169
  0.7021751833541188 -0.0012740542866799  0.4626839758188409
  0.7000548920725573  0.3334284873439157  0.4618462775099253
  0.6996662466317386  0.6653803149399955  0.4625193335469266
  0.0357455032109647  0.0028130012514684  0.6121904561013307
  0.0352129288097618  0.3361302308137230  0.6121602584076378
  0.0349417811368031  0.6678104705380111  0.6129200323704781
  0.3691483689212226  0.0018034935649325  0.6123596646267266
  0.3695346917408434  0.3377525158278089  0.6144265118695144
  0.3697654358929324  0.6677355830741419  0.6149907556325853
  0.7012187100975141  0.0025824407444043  0.6122933377698657
  0.7016063665549186  0.3356002233144631  0.6127342041478134
  0.7000284510697438  0.6684108999179139  0.6147570059054165
  0.1927240770762213  0.1565621831653742  0.3124299083028551
  0.1984748735803376  0.5029035616102091  0.3120956846435870
  0.1996455197794929  0.8328143091733538  0.3121940323494683
  0.5363689381782802  0.1626703079335880  0.3135193950182324
  0.5395964929640146  0.5043945760487495  0.3092901105871277
  0.5358374963239739  0.8342051942001892  0.3115107326928466
  0.8707737342213669  0.1644508108989705  0.3125478681793992
  0.8681134791506269  0.4985410771504740  0.3120568002095590
  0.8651598997548343  0.8297314345000610  0.3125324772027580
  0.2010477301355670  0.1665562989334360  0.4619030862846952
  0.2035491119957148  0.4984416506722993  0.4618444286580564
  0.2017798785883611  0.8318887435701710  0.4624285759150333
  0.5352282010498027  0.1652411555946694  0.4624698853077731
  0.5336042968942849  0.4991103291923199  0.4618905877721430
  0.5341912281289978  0.8320048267202070  0.4622611921560212
  0.8678593613169153  0.1672915820875708  0.4622354915027286
  0.8668526520962386  0.4995920597093221  0.4620183854647250
  0.8681070812651022  0.8305448813737182  0.4627401045661152
  0.2032297896545668  0.1693392272888289  0.6119034846755863
  0.2037979561142956  0.5021654842127365  0.6146370867528912
  0.2022797574534930  0.8346308376856012  0.6125307381342692
  0.5343455072528068  0.1688698187988172  0.6125948459741738
  0.5345710022574588  0.5026629174732226  0.6151454959883009
  0.5352879253994171  0.8337700872167455  0.6142247625972009
  0.8684228230353186  0.1692249765007629  0.6118874999394979
  0.8675890193842647  0.5025546850073283  0.6128140017336251
  0.8685292657208487  0.8350995184467963  0.6123880870917603
  0.0339846042462472  0.1657464821078041  0.3874928169987468
  0.0357111065433704  0.4982710633552539  0.3871666391753972
  0.0337537337316430  0.8293201888619681  0.3880232570551199
  0.3669332086195303  0.1647537644336765  0.3857276511285317
  0.3688668462613107  0.4971324335423852  0.3848892594725731
  0.3681065534344637  0.8326579117495583  0.3872140935438301
  0.7021095969937671  0.1653829085078549  0.3875621941847035
  0.6972957266585399  0.4973155831872835  0.3855458483572329
  0.7000682370951651  0.8311675366723423  0.3879441417080820
  0.0354081593831419  0.1676125773724397  0.5369720205072576
  0.0356560767312829  0.5006301330607508  0.5383229755066998
  0.0357026812351618  0.8341747509453110  0.5376451560372337
  0.3686942467295177  0.1689034749170134  0.5376735492148925
  0.3684116797385432  0.5009242632763249  0.5381912246005960
  0.3685415683885063  0.8329061300325917  0.5376936798012766
  0.7006426361840764  0.1678775940136924  0.5376577780322791
  0.7011762406100049  0.5012520752750931  0.5381064761923420
  0.7007294165978196  0.8332838157568750  0.5380519215662017
  0.0355122964090488  0.1693911983834684  0.6873355021587014
  0.0335015172173251  0.5006120041503083  0.6880383182795836
  0.0331909924697450  0.8382885355666219  0.6874065557483191
  0.3689663248950805  0.1682358699567729  0.6877940320693815
  0.3615453609021978  0.4953670863566847  0.6909971313411079
  0.3652374346441198  0.8369231185341300  0.6865774746354041
  0.7016564805807319  0.1675913897721501  0.6876898540421230
  0.7053158685510706  0.4995860100053974  0.6879446978108074
  0.7085068289774753  0.8420777712279061  0.6875895620016955
  0.1999290403437265 -0.0030301643773188  0.3878017392215724
  0.2028578075522334  0.3315387680343632  0.3851103815833742
  0.2028098978084972  0.6648398396960660  0.3872859470761171
  0.5345439813248003 -0.0019050819213528  0.3875638396318317
  0.5324612962503518  0.3306935401774330  0.3852783269783548
  0.5328745503671531  0.6637611124594309  0.3856868004870809
  0.8679547352897095 -0.0026709219740727  0.3879924174356742
  0.8679808310406675  0.3335889112857561  0.3870948456797043
  0.8663037779687791  0.6629127438974806  0.3876869368804479
  0.2029112510321425  0.0006928736369601  0.5374064457482131
  0.2023240451149940  0.3347511508189555  0.5373949631384567
  0.2021876980689013  0.6666166609555169  0.5382073851843542
  0.5341601171744044 -0.0005560184846365  0.5378813203046597
  0.5348081830499261  0.3351614524098617  0.5375583880944338
  0.5345486026221679  0.6664388170909733  0.5384689039680459
  0.8679068228953917  0.0006146836599327  0.5375173163659923
  0.8679444935019826  0.3347474245508816  0.5369247724325441
  0.8678169941449834  0.6673435837179295  0.5381145498429643
  0.2008780396181673  0.0037403325001016  0.6871770469863965
  0.1986033095686692  0.3317874533918193  0.6874928922945956
  0.1967784328174789  0.6704231420719943  0.6873800086770491
  0.5349030594551510  0.0013633127493272  0.6877322536741873
  0.5372700777064028  0.3329944619655814  0.6882843793324765
  0.5459653489118915  0.6779990712233412  0.6912966084462067
  0.8707069530976155  0.0066384573857026  0.6875257865705284
  0.8688515533758354  0.3325639430408117  0.6874988469468710
  0.8692947602565828  0.6690506518274938  0.6880381248555640
  0.4494306294859529  0.5911679019199536  0.7450672916650086
  0.4530917498231444  0.4064530743565277  0.2556892260679984
 
  0.00000000E+00  0.00000000E+00  0.00000000E+00
  0.00000000E+00  0.00000000E+00  0.00000000E+00
  0.00000000E+00  0.00000000E+00  0.00000000E+00
  0.00000000E+00  0.00000000E+00  0.00000000E+00
  0.00000000E+00  0.00000000E+00  0.00000000E+00
  0.00000000E+00  0.00000000E+00  0.00000000E+00
  0.00000000E+00  0.00000000E+00  0.00000000E+00
  0.00000000E+00  0.00000000E+00  0.00000000E+00
  0.00000000E+00  0.00000000E+00  0.00000000E+00
  0.00000000E+00  0.00000000E+00  0.00000000E+00
  0.00000000E+00  0.00000000E+00  0.00000000E+00
  0.00000000E+00  0.00000000E+00  0.00000000E+00
  0.00000000E+00  0.00000000E+00  0.00000000E+00
  0.00000000E+00  0.00000000E+00  0.00000000E+00
  0.00000000E+00  0.00000000E+00  0.00000000E+00
  0.00000000E+00  0.00000000E+00  0.00000000E+00
  0.00000000E+00  0.00000000E+00  0.00000000E+00
  0.00000000E+00  0.00000000E+00  0.00000000E+00
  0.00000000E+00  0.00000000E+00  0.00000000E+00
  0.00000000E+00  0.00000000E+00  0.00000000E+00
  0.00000000E+00  0.00000000E+00  0.00000000E+00
  0.00000000E+00  0.00000000E+00  0.00000000E+00
  0.00000000E+00  0.00000000E+00  0.00000000E+00
  0.00000000E+00  0.00000000E+00  0.00000000E+00
  0.00000000E+00  0.00000000E+00  0.00000000E+00
  0.00000000E+00  0.00000000E+00  0.00000000E+00
  0.00000000E+00  0.00000000E+00  0.00000000E+00
  0.00000000E+00  0.00000000E+00  0.00000000E+00
  0.00000000E+00  0.00000000E+00  0.00000000E+00
  0.00000000E+00  0.00000000E+00  0.00000000E+00
  0.00000000E+00  0.00000000E+00  0.00000000E+00
  0.00000000E+00  0.00000000E+00  0.00000000E+00
  0.00000000E+00  0.00000000E+00  0.00000000E+00
  0.00000000E+00  0.00000000E+00  0.00000000E+00
  0.00000000E+00  0.00000000E+00  0.00000000E+00
  0.00000000E+00  0.00000000E+00  0.00000000E+00
  0.00000000E+00  0.00000000E+00  0.00000000E+00
  0.00000000E+00  0.00000000E+00  0.00000000E+00
  0.00000000E+00  0.00000000E+00  0.00000000E+00
  0.00000000E+00  0.00000000E+00  0.00000000E+00
  0.00000000E+00  0.00000000E+00  0.00000000E+00
  0.00000000E+00  0.00000000E+00  0.00000000E+00
  0.00000000E+00  0.00000000E+00  0.00000000E+00
  0.00000000E+00  0.00000000E+00  0.00000000E+00
  0.00000000E+00  0.00000000E+00  0.00000000E+00
  0.00000000E+00  0.00000000E+00  0.00000000E+00
  0.00000000E+00  0.00000000E+00  0.00000000E+00
  0.00000000E+00  0.00000000E+00  0.00000000E+00
  0.00000000E+00  0.00000000E+00  0.00000000E+00
  0.00000000E+00  0.00000000E+00  0.00000000E+00
  0.00000000E+00  0.00000000E+00  0.00000000E+00
  0.00000000E+00  0.00000000E+00  0.00000000E+00
  0.00000000E+00  0.00000000E+00  0.00000000E+00
  0.00000000E+00  0.00000000E+00  0.00000000E+00
  0.00000000E+00  0.00000000E+00  0.00000000E+00
  0.00000000E+00  0.00000000E+00  0.00000000E+00
  0.00000000E+00  0.00000000E+00  0.00000000E+00
  0.00000000E+00  0.00000000E+00  0.00000000E+00
  0.00000000E+00  0.00000000E+00  0.00000000E+00
  0.00000000E+00  0.00000000E+00  0.00000000E+00
  0.00000000E+00  0.00000000E+00  0.00000000E+00
  0.00000000E+00  0.00000000E+00  0.00000000E+00
  0.00000000E+00  0.00000000E+00  0.00000000E+00
  0.00000000E+00  0.00000000E+00  0.00000000E+00
  0.00000000E+00  0.00000000E+00  0.00000000E+00
  0.00000000E+00  0.00000000E+00  0.00000000E+00
  0.00000000E+00  0.00000000E+00  0.00000000E+00
  0.00000000E+00  0.00000000E+00  0.00000000E+00
  0.00000000E+00  0.00000000E+00  0.00000000E+00
  0.00000000E+00  0.00000000E+00  0.00000000E+00
  0.00000000E+00  0.00000000E+00  0.00000000E+00
  0.00000000E+00  0.00000000E+00  0.00000000E+00
  0.00000000E+00  0.00000000E+00  0.00000000E+00
  0.00000000E+00  0.00000000E+00  0.00000000E+00
  0.00000000E+00  0.00000000E+00  0.00000000E+00
  0.00000000E+00  0.00000000E+00  0.00000000E+00
  0.00000000E+00  0.00000000E+00  0.00000000E+00
  0.00000000E+00  0.00000000E+00  0.00000000E+00
  0.00000000E+00  0.00000000E+00  0.00000000E+00
  0.00000000E+00  0.00000000E+00  0.00000000E+00
  0.00000000E+00  0.00000000E+00  0.00000000E+00
  0.00000000E+00  0.00000000E+00  0.00000000E+00
  0.00000000E+00  0.00000000E+00  0.00000000E+00
  0.00000000E+00  0.00000000E+00  0.00000000E+00
  0.00000000E+00  0.00000000E+00  0.00000000E+00
  0.00000000E+00  0.00000000E+00  0.00000000E+00
  0.00000000E+00  0.00000000E+00  0.00000000E+00
  0.00000000E+00  0.00000000E+00  0.00000000E+00
  0.00000000E+00  0.00000000E+00  0.00000000E+00
  0.00000000E+00  0.00000000E+00  0.00000000E+00
  0.00000000E+00  0.00000000E+00  0.00000000E+00
  0.00000000E+00  0.00000000E+00  0.00000000E+00
  0.00000000E+00  0.00000000E+00  0.00000000E+00
  0.00000000E+00  0.00000000E+00  0.00000000E+00
  0.00000000E+00  0.00000000E+00  0.00000000E+00
  0.00000000E+00  0.00000000E+00  0.00000000E+00
  0.00000000E+00  0.00000000E+00  0.00000000E+00
  0.00000000E+00  0.00000000E+00  0.00000000E+00
  0.00000000E+00  0.00000000E+00  0.00000000E+00
  0.00000000E+00  0.00000000E+00  0.00000000E+00
  0.00000000E+00  0.00000000E+00  0.00000000E+00
  0.00000000E+00  0.00000000E+00  0.00000000E+00
  0.00000000E+00  0.00000000E+00  0.00000000E+00
  0.00000000E+00  0.00000000E+00  0.00000000E+00
  0.00000000E+00  0.00000000E+00  0.00000000E+00
  0.00000000E+00  0.00000000E+00  0.00000000E+00
  0.00000000E+00  0.00000000E+00  0.00000000E+00
  0.00000000E+00  0.00000000E+00  0.00000000E+00
  0.00000000E+00  0.00000000E+00  0.00000000E+00
  0.00000000E+00  0.00000000E+00  0.00000000E+00
  0.00000000E+00  0.00000000E+00  0.00000000E+00
  0.00000000E+00  0.00000000E+00  0.00000000E+00
