Generated by VASPKIT code               
    1.000000000000000     
    11.8284997940000007    0.0000000000000000    0.0000000000000000
     0.0000000000000000   11.8284997940000007    0.0000000000000000
     0.0000000000000000    0.0000000000000000   29.8570995331000013
   Au
   108
Direct
  0.0351050140112150  0.9999616158795988  0.3123039778454100
  0.0353517883190477  0.3354154648270224  0.3122132289172939
  0.0353502961817824  0.6645788440383527  0.3122139557370431
  0.3665548699225454  0.9999937278589215  0.3119760382655485
  0.3693163714729977  0.3322088583959300  0.3121823144514693
  0.3693624934079764  0.6677443322730170  0.3122046829517515
  0.7040164003925256  0.0000119621678181  0.3121156827095390
  0.7006763541504526  0.3325552654601154  0.3121420660630960
  0.7006459088028407  0.6674398850079655  0.3121423086516018
  0.0338345035873573  0.0000341548923402  0.4620411845923584
  0.0349062953508792  0.3345501589928332  0.4624677779928561
  0.0349178918106361  0.6654754053263261  0.4624619406044843
  0.3673174251871671  0.0000269704534475  0.4621586392106281
  0.3682236598084501  0.3324640064182276  0.4623308829701571
  0.3681986850443835  0.6675179829083859  0.4623387144228701
  0.7025260270067548  0.0000001518982629  0.4625816568871031
  0.7005387998175294  0.3332514830611544  0.4620465872868280
  0.7005278928988687  0.6667972843648187  0.4620445532018636
  0.0343761902281514  0.9999576697549060  0.6129962496312231
  0.0341119372994569  0.3324766395248062  0.6130375888032447
  0.0340964836886215  0.6675296851160226  0.6130644533249807
  0.3682666474421694  0.9999954127322965  0.6128784746400058
  0.3672237250982064  0.3336478093399151  0.6130835679459423
  0.3672329008157433  0.6663473264345683  0.6130867421987247
  0.7000518756519156  0.9999991120561305  0.6130961122617649
  0.7016118844293189  0.3337998846609267  0.6128711185922100
  0.7016046132220524  0.6661947309928351  0.6128739108254138
  0.2006556650175497  0.1674252143969284  0.3121393393409875
  0.2039296311063197  0.4999776481778184  0.3121092394655918
  0.2008002894197674  0.8324019941370082  0.3121533757602108
  0.5353498802163514  0.1645773165682130  0.3122157552988654
  0.5350807052627715  0.4999831703135555  0.3123082574943581
  0.5353579667853055  0.8354235096396465  0.3122131230265595
  0.8693734439551477  0.1678370402466740  0.3120771903024249
  0.8665556742815710  0.5000321964526790  0.3119723476220955
  0.8693230286875959  0.8322033482176394  0.3121798113467378
  0.2005019684602942  0.1668168924627196  0.4620509501023022
  0.2025321153026880  0.4999975228386688  0.4625822121846355
  0.2005208557123339  0.8332563814945573  0.4620460422527799
  0.5349545944612402  0.1655323540042701  0.4624427740739705
  0.5338356522033436  0.5000310623277784  0.4620509089696583
  0.5348961372729093  0.8345321724194719  0.4624645949115518
  0.8682189283985124  0.1675346735199881  0.4623658691217827
  0.8673204410564850  0.5000136738280716  0.4621612582448762
  0.8682360991034699  0.8324823787201794  0.4623572398897835
  0.2016059747477996  0.1661816821206727  0.6128680663647543
  0.2002849472644215  0.4999970763522015  0.6131010239591603
  0.2016146444578126  0.8338024863396072  0.6128692904465041
  0.5340496964991672  0.1675476825106514  0.6130398726618651
  0.5344342732291807  0.4999894577628936  0.6130042893531993
  0.5340465306558286  0.8324348964206152  0.6130611571321367
  0.8672015208437998  0.1663351974236775  0.6130803693907865
  0.8682752186728493  0.5000048245417830  0.6128813843582179
  0.8671865183475305  0.8336536647448938  0.6130837916164396
  0.0341428058789361  0.1674755891585349  0.3869550580812486
  0.0343293007901977  0.4999383541299665  0.3869967577547797
  0.0344026989910731  0.8324744995163016  0.3869353668537840
  0.3673067539069237  0.1664270444249709  0.3869072009265011
  0.3683042555821885  0.4999464431754035  0.3871346280756995
  0.3672788495076631  0.8336046061419538  0.3869168356383312
  0.7016438118257966  0.1661475867203634  0.3871166482088100
  0.7004769223501555  0.5000327152035879  0.3868965800148700
  0.7016034818527714  0.8338080964948702  0.3871252196419945
  0.0349040216340839  0.1653948632208611  0.5375294959800740
  0.0336570965051095  0.5000828886461406  0.5380068067819082
  0.0349133997685698  0.8346103322334102  0.5375251916133763
  0.3681983882207760  0.1678105746092768  0.5375940677406064
  0.3671367711069209  0.4999961565732534  0.5379113923198489
  0.3681986459826945  0.8322646121470996  0.5376070003117164
  0.7004327088727749  0.1668048217805733  0.5379349088979808
  0.7026528715746707  0.5000076797912314  0.5374329801742377
  0.7003979408253329  0.8332372653502560  0.5379308967824130
  0.0353393456324582  0.1645122292585555  0.6877550585098362
  0.0351014112640442  0.4999701546914324  0.6876886199047973
  0.0353272429713343  0.8354933107514242  0.6877588130878394
  0.3693941508473202  0.1678299086106776  0.6879203395638740
  0.3665008445900426  0.5000650525532535  0.6879915669316148
  0.3693723621449791  0.8321459961902917  0.6879213945299014
  0.7006696655142477  0.1675179529976774  0.6878366165883421
  0.7041124672762820  0.4999968734447933  0.6879485886362247
  0.7006834483070463  0.8324797990759905  0.6878384441361902
  0.2004671309813872  0.0000325022248475  0.3868889914971660
  0.2015867501242568  0.3337854240660079  0.3871220623987028
  0.2016171528008925  0.6661418443106655  0.3871364940294200
  0.5343566072714694  0.9999642939653697  0.3869979394125309
  0.5344196747118062  0.3324754650899351  0.3869620231711153
  0.5341564748585270  0.6674691541104565  0.3869646310637478
  0.8683567882149177  0.9999787272816647  0.3871145173076016
  0.8672646939734179  0.3335768684638154  0.3869084201338069
  0.8673100486588652  0.6664327378023600  0.3869126295105616
  0.2026542549406329  0.0000108813141466  0.5374323036898048
  0.2004020896784198  0.3332426332486094  0.5379311438583656
  0.2004344518884054  0.6668002021326487  0.5379368266129489
  0.5336372644853924  0.0000150756600235  0.5379973566572502
  0.5349120591062189  0.3346139242861668  0.5375249559946838
  0.5349036470409203  0.6653919489956905  0.5375265761698174
  0.8671209020616431  0.9999979042071772  0.5379428003548696
  0.8682341666313746  0.3322993730491248  0.5376130812308020
  0.8681820757756569  0.6677797723607029  0.5376105212670552
  0.2041100980544570  0.9999982199893935  0.6879446995114193
  0.2007477690713699  0.3324547190707747  0.6878393683185493
  0.2006422218554675  0.6674803415034489  0.6878427494281851
  0.5350875746002117  0.9999929561993923  0.6876962248514005
  0.5353230377605129  0.3355014730339008  0.6877606989179839
  0.5353401416364960  0.6645223484791245  0.6878136674873545
  0.8664673224299122  0.0000047595997827  0.6879622220342227
  0.8693895632039172  0.3321481952720262  0.6879150917311776
  0.8693856319878890  0.6678315045707777  0.6879328939951037
 
  0.00000000E+00  0.00000000E+00  0.00000000E+00
  0.00000000E+00  0.00000000E+00  0.00000000E+00
  0.00000000E+00  0.00000000E+00  0.00000000E+00
  0.00000000E+00  0.00000000E+00  0.00000000E+00
  0.00000000E+00  0.00000000E+00  0.00000000E+00
  0.00000000E+00  0.00000000E+00  0.00000000E+00
  0.00000000E+00  0.00000000E+00  0.00000000E+00
  0.00000000E+00  0.00000000E+00  0.00000000E+00
  0.00000000E+00  0.00000000E+00  0.00000000E+00
  0.00000000E+00  0.00000000E+00  0.00000000E+00
  0.00000000E+00  0.00000000E+00  0.00000000E+00
  0.00000000E+00  0.00000000E+00  0.00000000E+00
  0.00000000E+00  0.00000000E+00  0.00000000E+00
  0.00000000E+00  0.00000000E+00  0.00000000E+00
  0.00000000E+00  0.00000000E+00  0.00000000E+00
  0.00000000E+00  0.00000000E+00  0.00000000E+00
  0.00000000E+00  0.00000000E+00  0.00000000E+00
  0.00000000E+00  0.00000000E+00  0.00000000E+00
  0.00000000E+00  0.00000000E+00  0.00000000E+00
  0.00000000E+00  0.00000000E+00  0.00000000E+00
  0.00000000E+00  0.00000000E+00  0.00000000E+00
  0.00000000E+00  0.00000000E+00  0.00000000E+00
  0.00000000E+00  0.00000000E+00  0.00000000E+00
  0.00000000E+00  0.00000000E+00  0.00000000E+00
  0.00000000E+00  0.00000000E+00  0.00000000E+00
  0.00000000E+00  0.00000000E+00  0.00000000E+00
  0.00000000E+00  0.00000000E+00  0.00000000E+00
  0.00000000E+00  0.00000000E+00  0.00000000E+00
  0.00000000E+00  0.00000000E+00  0.00000000E+00
  0.00000000E+00  0.00000000E+00  0.00000000E+00
  0.00000000E+00  0.00000000E+00  0.00000000E+00
  0.00000000E+00  0.00000000E+00  0.00000000E+00
  0.00000000E+00  0.00000000E+00  0.00000000E+00
  0.00000000E+00  0.00000000E+00  0.00000000E+00
  0.00000000E+00  0.00000000E+00  0.00000000E+00
  0.00000000E+00  0.00000000E+00  0.00000000E+00
  0.00000000E+00  0.00000000E+00  0.00000000E+00
  0.00000000E+00  0.00000000E+00  0.00000000E+00
  0.00000000E+00  0.00000000E+00  0.00000000E+00
  0.00000000E+00  0.00000000E+00  0.00000000E+00
  0.00000000E+00  0.00000000E+00  0.00000000E+00
  0.00000000E+00  0.00000000E+00  0.00000000E+00
  0.00000000E+00  0.00000000E+00  0.00000000E+00
  0.00000000E+00  0.00000000E+00  0.00000000E+00
  0.00000000E+00  0.00000000E+00  0.00000000E+00
  0.00000000E+00  0.00000000E+00  0.00000000E+00
  0.00000000E+00  0.00000000E+00  0.00000000E+00
  0.00000000E+00  0.00000000E+00  0.00000000E+00
  0.00000000E+00  0.00000000E+00  0.00000000E+00
  0.00000000E+00  0.00000000E+00  0.00000000E+00
  0.00000000E+00  0.00000000E+00  0.00000000E+00
  0.00000000E+00  0.00000000E+00  0.00000000E+00
  0.00000000E+00  0.00000000E+00  0.00000000E+00
  0.00000000E+00  0.00000000E+00  0.00000000E+00
  0.00000000E+00  0.00000000E+00  0.00000000E+00
  0.00000000E+00  0.00000000E+00  0.00000000E+00
  0.00000000E+00  0.00000000E+00  0.00000000E+00
  0.00000000E+00  0.00000000E+00  0.00000000E+00
  0.00000000E+00  0.00000000E+00  0.00000000E+00
  0.00000000E+00  0.00000000E+00  0.00000000E+00
  0.00000000E+00  0.00000000E+00  0.00000000E+00
  0.00000000E+00  0.00000000E+00  0.00000000E+00
  0.00000000E+00  0.00000000E+00  0.00000000E+00
  0.00000000E+00  0.00000000E+00  0.00000000E+00
  0.00000000E+00  0.00000000E+00  0.00000000E+00
  0.00000000E+00  0.00000000E+00  0.00000000E+00
  0.00000000E+00  0.00000000E+00  0.00000000E+00
  0.00000000E+00  0.00000000E+00  0.00000000E+00
  0.00000000E+00  0.00000000E+00  0.00000000E+00
  0.00000000E+00  0.00000000E+00  0.00000000E+00
  0.00000000E+00  0.00000000E+00  0.00000000E+00
  0.00000000E+00  0.00000000E+00  0.00000000E+00
  0.00000000E+00  0.00000000E+00  0.00000000E+00
  0.00000000E+00  0.00000000E+00  0.00000000E+00
  0.00000000E+00  0.00000000E+00  0.00000000E+00
  0.00000000E+00  0.00000000E+00  0.00000000E+00
  0.00000000E+00  0.00000000E+00  0.00000000E+00
  0.00000000E+00  0.00000000E+00  0.00000000E+00
  0.00000000E+00  0.00000000E+00  0.00000000E+00
  0.00000000E+00  0.00000000E+00  0.00000000E+00
  0.00000000E+00  0.00000000E+00  0.00000000E+00
  0.00000000E+00  0.00000000E+00  0.00000000E+00
  0.00000000E+00  0.00000000E+00  0.00000000E+00
  0.00000000E+00  0.00000000E+00  0.00000000E+00
  0.00000000E+00  0.00000000E+00  0.00000000E+00
  0.00000000E+00  0.00000000E+00  0.00000000E+00
  0.00000000E+00  0.00000000E+00  0.00000000E+00
  0.00000000E+00  0.00000000E+00  0.00000000E+00
  0.00000000E+00  0.00000000E+00  0.00000000E+00
  0.00000000E+00  0.00000000E+00  0.00000000E+00
  0.00000000E+00  0.00000000E+00  0.00000000E+00
  0.00000000E+00  0.00000000E+00  0.00000000E+00
  0.00000000E+00  0.00000000E+00  0.00000000E+00
  0.00000000E+00  0.00000000E+00  0.00000000E+00
  0.00000000E+00  0.00000000E+00  0.00000000E+00
  0.00000000E+00  0.00000000E+00  0.00000000E+00
  0.00000000E+00  0.00000000E+00  0.00000000E+00
  0.00000000E+00  0.00000000E+00  0.00000000E+00
  0.00000000E+00  0.00000000E+00  0.00000000E+00
  0.00000000E+00  0.00000000E+00  0.00000000E+00
  0.00000000E+00  0.00000000E+00  0.00000000E+00
  0.00000000E+00  0.00000000E+00  0.00000000E+00
  0.00000000E+00  0.00000000E+00  0.00000000E+00
  0.00000000E+00  0.00000000E+00  0.00000000E+00
  0.00000000E+00  0.00000000E+00  0.00000000E+00
  0.00000000E+00  0.00000000E+00  0.00000000E+00
  0.00000000E+00  0.00000000E+00  0.00000000E+00
  0.00000000E+00  0.00000000E+00  0.00000000E+00
