Generated by VASPKIT code               
    1.000000000000000     
    11.8284997940000007    0.0000000000000000    0.0000000000000000
     0.0000000000000000   11.8284997940000007    0.0000000000000000
     0.0000000000000000    0.0000000000000000   29.8570995331000013
   Ir
   108
Direct
  0.0347394452276077  0.0000003234119319  0.3433448703967201
  0.0347125076103652  0.3333206348533082  0.3432935798535866
  0.0347129347161257  0.6666783847009725  0.3432943300257776
  0.3679239541335377  0.0000006173152229  0.3433126771287149
  0.3679524323816281  0.3333999137425607  0.3433048865906798
  0.3679531427505509  0.6666000368582203  0.3433049368099432
  0.7013480060659631  0.0000003548035608  0.3433207635874851
  0.7013790430145121  0.3334222631864705  0.3433349904503231
  0.7013789425170458  0.6665770569788876  0.3433357043720875
  0.0347628190332543  0.0000005444935312  0.4678188410987829
  0.0346664412536342  0.3333675802979315  0.4678567462850012
  0.0346663936825138  0.6666320325756132  0.4678562004588827
  0.3680207683702648  0.9999997908305076  0.4678660627007076
  0.3679848825567689  0.3333195950924974  0.4678308152356649
  0.3679832634569991  0.6666759224727272  0.4678295474396919
  0.7012766572671865  0.0000001243322671  0.4678319080365512
  0.7013553127712342  0.3333574581324825  0.4678334061127316
  0.7013560448952063  0.6666423785590467  0.4678330657102805
  0.0345677623029985  0.0000002414557372  0.5965651838444046
  0.0346674649794281  0.3332877109076051  0.5965424513835629
  0.0346718453307631  0.6667133288199594  0.5965410904858075
  0.3679374980626733  0.0000013319048975  0.5965116562013222
  0.3681017663453190  0.3332869811440702  0.5965416786962763
  0.3681029467211658  0.6667123985739138  0.5965416121718974
  0.7014649238457693  0.9999998792873086  0.5964907103869166
  0.7012944525141833  0.3333042762093044  0.5965176736670941
  0.7012981877669375  0.6666960498303141  0.5965187183856955
  0.2013796739654197  0.1665788715132592  0.3433355809884304
  0.2013489380453635  0.4999992581872732  0.3433202828133801
  0.2013795172454493  0.8334214941018701  0.3433362856246518
  0.5347119450548874  0.1666803611097265  0.3432931042369063
  0.5347388733098484  0.4999993349633627  0.3433432780289820
  0.5347118846351009  0.8333199242556404  0.3432935005072721
  0.8679523122715977  0.1666018894329042  0.3433057287671772
  0.8679240595045599  0.4999990093887945  0.3433130679276246
  0.8679526588649651  0.8333986479050495  0.3433065927757397
  0.2013567021972804  0.1666431527124175  0.4678336092912190
  0.2012768444817681  0.4999992171987913  0.4678322304505542
  0.2013569215541651  0.8333576537325342  0.4678331981346986
  0.5346663064295711  0.1666332470052581  0.4678565638934700
  0.5347626969193442  0.4999999892964624  0.4678192486606250
  0.5346663450493168  0.8333668153959550  0.4678565511698736
  0.8679838688585662  0.1666808289189916  0.4678303014807597
  0.8680201654019442  0.4999997437264412  0.4678661139053375
  0.8679849547741085  0.8333201507586523  0.4678299962110017
  0.2012954962744047  0.1666962046997824  0.5965179280524069
  0.2014662470661364  0.4999994700255286  0.5964916373327398
  0.2012968717427057  0.8333043787609924  0.5965179282344764
  0.5346688460582882  0.1667138704542026  0.5965410046148349
  0.5345661410895559  0.4999995115063456  0.5965651713444942
  0.5346692355048717  0.8332877332024111  0.5965417460365003
  0.8681016692420869  0.1667139660286452  0.5965416369834600
  0.8679333487309506  0.5000002342158112  0.5965053504732083
  0.8681027103368564  0.8332883090292285  0.5965413121999248
  0.0346723075754767  0.1667082668991071  0.4034603819496780
  0.0345701428833110  0.4999996029209299  0.4034404255074975
  0.0346723701717053  0.8332913719607618  0.4034596431706277
  0.3681018952740160  0.1667111228159683  0.4034630635509302
  0.3679340064566361  0.4999988127438044  0.4034861223154422
  0.3681014872728028  0.8332904270971042  0.4034628022513118
  0.7012968120232586  0.1666990008442397  0.4034850593178803
  0.7014635688567878  0.4999993865985388  0.4035099617559297
  0.7012979221148967  0.8333007188257611  0.4034845243244831
  0.0346630445472798  0.1666322480705063  0.5321480798325524
  0.0347604154516574  0.4999993193417112  0.5321847905218036
  0.0346634045694714  0.8333686440998349  0.5321482914766875
  0.3679871453693053  0.1666798551032826  0.5321738451612177
  0.3680203778752116  0.5000004755531648  0.5321384784225600
  0.3679854039038162  0.8333220330613003  0.5321744154422134
  0.7013559215688829  0.1666406415342081  0.5321698979483074
  0.7012732849076215  0.4999995110578013  0.5321707967625500
  0.7013569165255262  0.8333598935535491  0.5321697355859882
  0.0347087540864379  0.1666794802584732  0.6567101483411832
  0.0347467718631407  0.5000023570278316  0.6566563233892566
  0.0347108862987184  0.8333207780295098  0.6567094352457232
  0.3679546862352012  0.1666002995645144  0.6566976387405532
  0.3679226197747667  0.4999995384784910  0.6566925922157054
  0.3679547853894292  0.8334009850262234  0.6566977840329145
  0.7013759391690826  0.1665815009112421  0.6566692346478789
  0.7013415952858963  0.4999999247616316  0.6566829855279295
  0.7013773677520945  0.8334191587394244  0.6566694220312854
  0.2014640306386895  0.0000002603201921  0.4035099491362644
  0.2012978986132268  0.3333009763978438  0.4034851449194647
  0.2012965148512720  0.6666988001619742  0.4034841227173303
  0.5345697341423161  0.0000005034755119  0.4034410621873477
  0.5346718496824039  0.3332918213319118  0.4034608926128058
  0.5346722181952899  0.6667079018150801  0.4034607187438368
  0.8679338004521142  0.0000005145645687  0.4034856107843581
  0.8681014841711985  0.3332895294511005  0.4034626598671309
  0.8681015086688646  0.6667098884303542  0.4034620949799859
  0.2012739280960147  0.0000003554707817  0.5321705053106882
  0.2013563431187748  0.3333588995501202  0.5321704142006496
  0.2013577210615338  0.6666406101821991  0.5321705853252183
  0.5347618869692923  0.9999997266734795  0.5321833671520722
  0.5346625533234572  0.3333673863812265  0.5321483963932110
  0.5346620858835678  0.6666327017359421  0.5321482436786198
  0.8680201074570988  0.0000005743392393  0.5321375099824550
  0.8679855959744032  0.3333217369753783  0.5321740168876374
  0.8679836392551010  0.6666767255943071  0.5321745424942961
  0.2013434839445338  0.9999996100644069  0.6566832350726912
  0.2013747172943710  0.3334179839702358  0.6566680414640658
  0.2013757176812021  0.6665821724973569  0.6566677222662847
  0.5347395500591858  0.9999941247710282  0.6566641215796736
  0.5347095310214485  0.3333177074665130  0.6567095107057881
  0.5347110080089195  0.6666820463082814  0.6567098161415856
  0.8679221432730131  0.9999996833074860  0.6566942280208607
  0.8679510504548418  0.3333981935422585  0.6566978475995668
  0.8679555843226012  0.6666037320451039  0.6566980166498197
 
  0.00000000E+00  0.00000000E+00  0.00000000E+00
  0.00000000E+00  0.00000000E+00  0.00000000E+00
  0.00000000E+00  0.00000000E+00  0.00000000E+00
  0.00000000E+00  0.00000000E+00  0.00000000E+00
  0.00000000E+00  0.00000000E+00  0.00000000E+00
  0.00000000E+00  0.00000000E+00  0.00000000E+00
  0.00000000E+00  0.00000000E+00  0.00000000E+00
  0.00000000E+00  0.00000000E+00  0.00000000E+00
  0.00000000E+00  0.00000000E+00  0.00000000E+00
  0.00000000E+00  0.00000000E+00  0.00000000E+00
  0.00000000E+00  0.00000000E+00  0.00000000E+00
  0.00000000E+00  0.00000000E+00  0.00000000E+00
  0.00000000E+00  0.00000000E+00  0.00000000E+00
  0.00000000E+00  0.00000000E+00  0.00000000E+00
  0.00000000E+00  0.00000000E+00  0.00000000E+00
  0.00000000E+00  0.00000000E+00  0.00000000E+00
  0.00000000E+00  0.00000000E+00  0.00000000E+00
  0.00000000E+00  0.00000000E+00  0.00000000E+00
  0.00000000E+00  0.00000000E+00  0.00000000E+00
  0.00000000E+00  0.00000000E+00  0.00000000E+00
  0.00000000E+00  0.00000000E+00  0.00000000E+00
  0.00000000E+00  0.00000000E+00  0.00000000E+00
  0.00000000E+00  0.00000000E+00  0.00000000E+00
  0.00000000E+00  0.00000000E+00  0.00000000E+00
  0.00000000E+00  0.00000000E+00  0.00000000E+00
  0.00000000E+00  0.00000000E+00  0.00000000E+00
  0.00000000E+00  0.00000000E+00  0.00000000E+00
  0.00000000E+00  0.00000000E+00  0.00000000E+00
  0.00000000E+00  0.00000000E+00  0.00000000E+00
  0.00000000E+00  0.00000000E+00  0.00000000E+00
  0.00000000E+00  0.00000000E+00  0.00000000E+00
  0.00000000E+00  0.00000000E+00  0.00000000E+00
  0.00000000E+00  0.00000000E+00  0.00000000E+00
  0.00000000E+00  0.00000000E+00  0.00000000E+00
  0.00000000E+00  0.00000000E+00  0.00000000E+00
  0.00000000E+00  0.00000000E+00  0.00000000E+00
  0.00000000E+00  0.00000000E+00  0.00000000E+00
  0.00000000E+00  0.00000000E+00  0.00000000E+00
  0.00000000E+00  0.00000000E+00  0.00000000E+00
  0.00000000E+00  0.00000000E+00  0.00000000E+00
  0.00000000E+00  0.00000000E+00  0.00000000E+00
  0.00000000E+00  0.00000000E+00  0.00000000E+00
  0.00000000E+00  0.00000000E+00  0.00000000E+00
  0.00000000E+00  0.00000000E+00  0.00000000E+00
  0.00000000E+00  0.00000000E+00  0.00000000E+00
  0.00000000E+00  0.00000000E+00  0.00000000E+00
  0.00000000E+00  0.00000000E+00  0.00000000E+00
  0.00000000E+00  0.00000000E+00  0.00000000E+00
  0.00000000E+00  0.00000000E+00  0.00000000E+00
  0.00000000E+00  0.00000000E+00  0.00000000E+00
  0.00000000E+00  0.00000000E+00  0.00000000E+00
  0.00000000E+00  0.00000000E+00  0.00000000E+00
  0.00000000E+00  0.00000000E+00  0.00000000E+00
  0.00000000E+00  0.00000000E+00  0.00000000E+00
  0.00000000E+00  0.00000000E+00  0.00000000E+00
  0.00000000E+00  0.00000000E+00  0.00000000E+00
  0.00000000E+00  0.00000000E+00  0.00000000E+00
  0.00000000E+00  0.00000000E+00  0.00000000E+00
  0.00000000E+00  0.00000000E+00  0.00000000E+00
  0.00000000E+00  0.00000000E+00  0.00000000E+00
  0.00000000E+00  0.00000000E+00  0.00000000E+00
  0.00000000E+00  0.00000000E+00  0.00000000E+00
  0.00000000E+00  0.00000000E+00  0.00000000E+00
  0.00000000E+00  0.00000000E+00  0.00000000E+00
  0.00000000E+00  0.00000000E+00  0.00000000E+00
  0.00000000E+00  0.00000000E+00  0.00000000E+00
  0.00000000E+00  0.00000000E+00  0.00000000E+00
  0.00000000E+00  0.00000000E+00  0.00000000E+00
  0.00000000E+00  0.00000000E+00  0.00000000E+00
  0.00000000E+00  0.00000000E+00  0.00000000E+00
  0.00000000E+00  0.00000000E+00  0.00000000E+00
  0.00000000E+00  0.00000000E+00  0.00000000E+00
  0.00000000E+00  0.00000000E+00  0.00000000E+00
  0.00000000E+00  0.00000000E+00  0.00000000E+00
  0.00000000E+00  0.00000000E+00  0.00000000E+00
  0.00000000E+00  0.00000000E+00  0.00000000E+00
  0.00000000E+00  0.00000000E+00  0.00000000E+00
  0.00000000E+00  0.00000000E+00  0.00000000E+00
  0.00000000E+00  0.00000000E+00  0.00000000E+00
  0.00000000E+00  0.00000000E+00  0.00000000E+00
  0.00000000E+00  0.00000000E+00  0.00000000E+00
  0.00000000E+00  0.00000000E+00  0.00000000E+00
  0.00000000E+00  0.00000000E+00  0.00000000E+00
  0.00000000E+00  0.00000000E+00  0.00000000E+00
  0.00000000E+00  0.00000000E+00  0.00000000E+00
  0.00000000E+00  0.00000000E+00  0.00000000E+00
  0.00000000E+00  0.00000000E+00  0.00000000E+00
  0.00000000E+00  0.00000000E+00  0.00000000E+00
  0.00000000E+00  0.00000000E+00  0.00000000E+00
  0.00000000E+00  0.00000000E+00  0.00000000E+00
  0.00000000E+00  0.00000000E+00  0.00000000E+00
  0.00000000E+00  0.00000000E+00  0.00000000E+00
  0.00000000E+00  0.00000000E+00  0.00000000E+00
  0.00000000E+00  0.00000000E+00  0.00000000E+00
  0.00000000E+00  0.00000000E+00  0.00000000E+00
  0.00000000E+00  0.00000000E+00  0.00000000E+00
  0.00000000E+00  0.00000000E+00  0.00000000E+00
  0.00000000E+00  0.00000000E+00  0.00000000E+00
  0.00000000E+00  0.00000000E+00  0.00000000E+00
  0.00000000E+00  0.00000000E+00  0.00000000E+00
  0.00000000E+00  0.00000000E+00  0.00000000E+00
  0.00000000E+00  0.00000000E+00  0.00000000E+00
  0.00000000E+00  0.00000000E+00  0.00000000E+00
  0.00000000E+00  0.00000000E+00  0.00000000E+00
  0.00000000E+00  0.00000000E+00  0.00000000E+00
  0.00000000E+00  0.00000000E+00  0.00000000E+00
  0.00000000E+00  0.00000000E+00  0.00000000E+00
  0.00000000E+00  0.00000000E+00  0.00000000E+00
