Generated by VASPKIT code               
   1.00000000000000     
    11.8284997940000007    0.0000000000000000    0.0000000000000000
     0.0000000000000000   11.8284997940000007    0.0000000000000000
     0.0000000000000000    0.0000000000000000   29.8570995331000013
   Rh
   108
Direct
  0.0348638150093379  0.0000241828533163  0.3466711478477933
  0.0347775143129709  0.3329447348275849  0.3467366302722468
  0.0347722624239495  0.6670525799414122  0.3467365956833746
  0.3678204786020558  0.0000035728400221  0.3467283372989485
  0.3680729581365583  0.3334148414792750  0.3467480807932191
  0.3680755803660460  0.6665896952104688  0.3467477203056077
  0.7008796966693680  0.0000009219514467  0.3467935434502607
  0.7013605566213812  0.3335758433538274  0.3467650314383519
  0.7013869400657242  0.6664115171789149  0.3467625050160805
  0.0348527769367308  0.9999999870051113  0.4685050870722662
  0.0348308127497390  0.3330746625523417  0.4684713556282105
  0.0348366843676331  0.6669240263872211  0.4684721904776623
  0.3678495727496767  0.0000028104619716  0.4684947474269663
  0.3680908624752419  0.3335395853399206  0.4685081554834554
  0.3680955985012417  0.6664660051321931  0.4685053185546835
  0.7008954653902180  0.9999996363335981  0.4683702264451455
  0.7014234508025012  0.3334836112317277  0.4684741560930803
  0.7014354893327734  0.6665135249414789  0.4684589789744820
  0.0344299252417670  0.9999999467669056  0.5941492391484715
  0.0345823414581332  0.3335145966059869  0.5941295399310889
  0.0345823128692402  0.6664899507991251  0.5941317395690007
  0.3679145362983505  0.9999993740271336  0.5941777932812045
  0.3681262685346240  0.3333362669965183  0.5940613858585806
  0.3681185207899631  0.6666563378283072  0.5940639026528345
  0.7014551109161076  0.9999918742996101  0.5940651362003067
  0.7013725846631331  0.3333331814132592  0.5941319727961769
  0.7013813046366693  0.6666606740674794  0.5941552948499549
  0.2013618811638480  0.1663995723412341  0.3467587486067316
  0.2008897036898816  0.4999997125312916  0.3467927660495960
  0.2013674366000160  0.8335858711652691  0.3467474365299594
  0.5348022348110675  0.1670846719242647  0.3467468192503418
  0.5350907494586252  0.4999646196824656  0.3467122653718917
  0.5348074712001463  0.8329268119342785  0.3467434996831358
  0.8679419732259177  0.1665682596152394  0.3467378740801692
  0.8678221936765240  0.5000005195246686  0.3467365052856621
  0.8679379416219888  0.8334376297321526  0.3467368642139164
  0.2014278920091925  0.1665222941094981  0.4684451121384541
  0.2009138706857883  0.5000011242531599  0.4683501143724342
  0.2014318276200058  0.8334785679553818  0.4684445229006826
  0.5348334338134109  0.1669152318920197  0.4684778056209069
  0.5348426387193541  0.5000046959983067  0.4685161620377798
  0.5348345107270518  0.8330765051105189  0.4684746660159220
  0.8681001918439151  0.1664658307350280  0.4685090027258241
  0.8678569181784113  0.4999981559702817  0.4684973736347189
  0.8680979153727222  0.8335366740433585  0.4685059024822849
  0.2013731748347638  0.1666648565273618  0.5941331055918795
  0.2014876649105517  0.5000051704873201  0.5940734330378206
  0.2013724807997264  0.8333349523540576  0.5941339523373088
  0.5345778304149107  0.1664911854347935  0.5941303368456090
  0.5344194101121289  0.4999979228280083  0.5941536855961687
  0.5345814538359051  0.8335075995547072  0.5941375858026845
  0.8681320494683789  0.1666641762794185  0.5940619844847106
  0.8679179947843281  0.4999936850209394  0.5941799778695938
  0.8681169757368750  0.8333430565979185  0.5940658848104974
  0.0345641863956061  0.1664919672439424  0.4058588670548318
  0.0344099650789786  0.4999997417476720  0.4058488687121979
  0.0345610097670104  0.8335085208963946  0.4058571803910027
  0.3681027319302359  0.1666756860184080  0.4059321307409007
  0.3679337823643465  0.4999998793196312  0.4058068632099818
  0.3681036559612707  0.8333293424865715  0.4059316061062432
  0.7013648312684069  0.1666630468125874  0.4058710047920400
  0.7014857092560334  0.5000005964289684  0.4059557226479100
  0.7013602701577000  0.8333360232383740  0.4058703920227629
  0.0348359631886268  0.1669266910817910  0.5315229467775779
  0.0348584540199184  0.5000029447110137  0.5314955061055286
  0.0348335240295086  0.8330716101998163  0.5315236654064464
  0.3680980730967320  0.1664670296647017  0.5314930070504644
  0.3678432091678019  0.4999991640596448  0.5315040797774202
  0.3681014213035567  0.8335354751531057  0.5314939324967227
  0.7014341754352245  0.1665082327991030  0.5315575863831228
  0.7009208195604018  0.5000024760776114  0.5316529443062166
  0.7014332916036707  0.8334789025250657  0.5315569966070584
  0.0348159989542367  0.1670845980782829  0.6532563035670478
  0.0348316629149537  0.5000020036111437  0.6533327800683537
  0.0348160525864145  0.8329214167333987  0.6532573063486637
  0.3680440346982579  0.1665958725576857  0.6532534633793787
  0.3678334226978279  0.5000036346342185  0.6532685776750782
  0.3680384310028160  0.8334169793025623  0.6532501101577850
  0.7013549115532314  0.1664379787674193  0.6532560744972002
  0.7008867627650019  0.4999894724474245  0.6532088823959938
  0.7013698591614670  0.8335574288108489  0.6532729643619177
  0.2014553672901513  0.0000028770960370  0.4059379476105391
  0.2013717377597786  0.3333388497264167  0.4058646574550551
  0.2013718247601588  0.6666566992417629  0.4058530205483493
  0.5344153275467391  0.0000009873403215  0.4058503908446696
  0.5345717345296492  0.3334766644428271  0.4059011449181682
  0.5345731484044762  0.6664899234245851  0.4058711116227371
  0.8679090937931377  0.0000000543714052  0.4058157332722203
  0.8681053680623592  0.3333253290664757  0.4059328590742410
  0.8681094040901982  0.6666774397158832  0.4059327550844216
  0.2009206781398163  0.0000002049665255  0.5316277809254188
  0.2014259435831107  0.3334963791907128  0.5315432584599336
  0.2014322806398496  0.6665149907975945  0.5315543116929859
  0.5348524763398146  0.9999988292498969  0.5314953601181998
  0.5348276098194944  0.3330685464635437  0.5315272020016053
  0.5348338605405942  0.6669277404102090  0.5315260832616673
  0.8678514219328548  0.0000011834626292  0.5315036220228748
  0.8681047232536301  0.3335368906717164  0.5314940124380811
  0.8681016862533468  0.6664725761345167  0.5314950665184526
  0.2008877134191422  0.0000027261175575  0.6532030813887673
  0.2013759314559778  0.3335700564710748  0.6532468536592901
  0.2013719195812769  0.6664592950053603  0.6532695521137342
  0.5348256950804995  0.9999990865383381  0.6533336843548767
  0.5348134859552331  0.3329182161226001  0.6532586738444337
  0.5348005974518841  0.6670788703797683  0.6532603989767765
  0.8678305029799347  0.9999972493153493  0.6532671437766808
  0.8680393001339084  0.3334153621148062  0.6532521359383310
  0.8680423110471125  0.6665929613256125  0.6532545091116333
 
  0.00000000E+00  0.00000000E+00  0.00000000E+00
  0.00000000E+00  0.00000000E+00  0.00000000E+00
  0.00000000E+00  0.00000000E+00  0.00000000E+00
  0.00000000E+00  0.00000000E+00  0.00000000E+00
  0.00000000E+00  0.00000000E+00  0.00000000E+00
  0.00000000E+00  0.00000000E+00  0.00000000E+00
  0.00000000E+00  0.00000000E+00  0.00000000E+00
  0.00000000E+00  0.00000000E+00  0.00000000E+00
  0.00000000E+00  0.00000000E+00  0.00000000E+00
  0.00000000E+00  0.00000000E+00  0.00000000E+00
  0.00000000E+00  0.00000000E+00  0.00000000E+00
  0.00000000E+00  0.00000000E+00  0.00000000E+00
  0.00000000E+00  0.00000000E+00  0.00000000E+00
  0.00000000E+00  0.00000000E+00  0.00000000E+00
  0.00000000E+00  0.00000000E+00  0.00000000E+00
  0.00000000E+00  0.00000000E+00  0.00000000E+00
  0.00000000E+00  0.00000000E+00  0.00000000E+00
  0.00000000E+00  0.00000000E+00  0.00000000E+00
  0.00000000E+00  0.00000000E+00  0.00000000E+00
  0.00000000E+00  0.00000000E+00  0.00000000E+00
  0.00000000E+00  0.00000000E+00  0.00000000E+00
  0.00000000E+00  0.00000000E+00  0.00000000E+00
  0.00000000E+00  0.00000000E+00  0.00000000E+00
  0.00000000E+00  0.00000000E+00  0.00000000E+00
  0.00000000E+00  0.00000000E+00  0.00000000E+00
  0.00000000E+00  0.00000000E+00  0.00000000E+00
  0.00000000E+00  0.00000000E+00  0.00000000E+00
  0.00000000E+00  0.00000000E+00  0.00000000E+00
  0.00000000E+00  0.00000000E+00  0.00000000E+00
  0.00000000E+00  0.00000000E+00  0.00000000E+00
  0.00000000E+00  0.00000000E+00  0.00000000E+00
  0.00000000E+00  0.00000000E+00  0.00000000E+00
  0.00000000E+00  0.00000000E+00  0.00000000E+00
  0.00000000E+00  0.00000000E+00  0.00000000E+00
  0.00000000E+00  0.00000000E+00  0.00000000E+00
  0.00000000E+00  0.00000000E+00  0.00000000E+00
  0.00000000E+00  0.00000000E+00  0.00000000E+00
  0.00000000E+00  0.00000000E+00  0.00000000E+00
  0.00000000E+00  0.00000000E+00  0.00000000E+00
  0.00000000E+00  0.00000000E+00  0.00000000E+00
  0.00000000E+00  0.00000000E+00  0.00000000E+00
  0.00000000E+00  0.00000000E+00  0.00000000E+00
  0.00000000E+00  0.00000000E+00  0.00000000E+00
  0.00000000E+00  0.00000000E+00  0.00000000E+00
  0.00000000E+00  0.00000000E+00  0.00000000E+00
  0.00000000E+00  0.00000000E+00  0.00000000E+00
  0.00000000E+00  0.00000000E+00  0.00000000E+00
  0.00000000E+00  0.00000000E+00  0.00000000E+00
  0.00000000E+00  0.00000000E+00  0.00000000E+00
  0.00000000E+00  0.00000000E+00  0.00000000E+00
  0.00000000E+00  0.00000000E+00  0.00000000E+00
  0.00000000E+00  0.00000000E+00  0.00000000E+00
  0.00000000E+00  0.00000000E+00  0.00000000E+00
  0.00000000E+00  0.00000000E+00  0.00000000E+00
  0.00000000E+00  0.00000000E+00  0.00000000E+00
  0.00000000E+00  0.00000000E+00  0.00000000E+00
  0.00000000E+00  0.00000000E+00  0.00000000E+00
  0.00000000E+00  0.00000000E+00  0.00000000E+00
  0.00000000E+00  0.00000000E+00  0.00000000E+00
  0.00000000E+00  0.00000000E+00  0.00000000E+00
  0.00000000E+00  0.00000000E+00  0.00000000E+00
  0.00000000E+00  0.00000000E+00  0.00000000E+00
  0.00000000E+00  0.00000000E+00  0.00000000E+00
  0.00000000E+00  0.00000000E+00  0.00000000E+00
  0.00000000E+00  0.00000000E+00  0.00000000E+00
  0.00000000E+00  0.00000000E+00  0.00000000E+00
  0.00000000E+00  0.00000000E+00  0.00000000E+00
  0.00000000E+00  0.00000000E+00  0.00000000E+00
  0.00000000E+00  0.00000000E+00  0.00000000E+00
  0.00000000E+00  0.00000000E+00  0.00000000E+00
  0.00000000E+00  0.00000000E+00  0.00000000E+00
  0.00000000E+00  0.00000000E+00  0.00000000E+00
  0.00000000E+00  0.00000000E+00  0.00000000E+00
  0.00000000E+00  0.00000000E+00  0.00000000E+00
  0.00000000E+00  0.00000000E+00  0.00000000E+00
  0.00000000E+00  0.00000000E+00  0.00000000E+00
  0.00000000E+00  0.00000000E+00  0.00000000E+00
  0.00000000E+00  0.00000000E+00  0.00000000E+00
  0.00000000E+00  0.00000000E+00  0.00000000E+00
  0.00000000E+00  0.00000000E+00  0.00000000E+00
  0.00000000E+00  0.00000000E+00  0.00000000E+00
  0.00000000E+00  0.00000000E+00  0.00000000E+00
  0.00000000E+00  0.00000000E+00  0.00000000E+00
  0.00000000E+00  0.00000000E+00  0.00000000E+00
  0.00000000E+00  0.00000000E+00  0.00000000E+00
  0.00000000E+00  0.00000000E+00  0.00000000E+00
  0.00000000E+00  0.00000000E+00  0.00000000E+00
  0.00000000E+00  0.00000000E+00  0.00000000E+00
  0.00000000E+00  0.00000000E+00  0.00000000E+00
  0.00000000E+00  0.00000000E+00  0.00000000E+00
  0.00000000E+00  0.00000000E+00  0.00000000E+00
  0.00000000E+00  0.00000000E+00  0.00000000E+00
  0.00000000E+00  0.00000000E+00  0.00000000E+00
  0.00000000E+00  0.00000000E+00  0.00000000E+00
  0.00000000E+00  0.00000000E+00  0.00000000E+00
  0.00000000E+00  0.00000000E+00  0.00000000E+00
  0.00000000E+00  0.00000000E+00  0.00000000E+00
  0.00000000E+00  0.00000000E+00  0.00000000E+00
  0.00000000E+00  0.00000000E+00  0.00000000E+00
  0.00000000E+00  0.00000000E+00  0.00000000E+00
  0.00000000E+00  0.00000000E+00  0.00000000E+00
  0.00000000E+00  0.00000000E+00  0.00000000E+00
  0.00000000E+00  0.00000000E+00  0.00000000E+00
  0.00000000E+00  0.00000000E+00  0.00000000E+00
  0.00000000E+00  0.00000000E+00  0.00000000E+00
  0.00000000E+00  0.00000000E+00  0.00000000E+00
  0.00000000E+00  0.00000000E+00  0.00000000E+00
  0.00000000E+00  0.00000000E+00  0.00000000E+00
